21

C -0.1659 -2.1318 0.6978
C -1.3365 -1.3845 0.2362
H -0.5823 2.1597 1.4802
C -1.1830 -0.2380 0.9176
H -0.0314 -3.0561 0.1490
C 1.2499 0.4106 -0.1931
H -2.1372 -1.7412 -0.3861
H -0.9118 1.3511 -2.7398
H -0.3299 -2.3728 1.7372
H 1.6194 -1.0741 1.3279
C 0.9906 -1.0174 0.4261
H -1.8600 0.2285 1.6027
H 2.1970 0.8443 0.0244
C 0.6900 0.8495 -1.5149
H 0.4779 2.6526 0.2668
C -0.5459 1.3344 -1.7459
C 0.1060 0.3574 0.6893
H -1.2404 1.7874 -1.0693
N 0.1247 1.8677 0.8258
H 1.4291 0.7058 -2.2885
H 1.4399 -1.5332 -0.4433
15

H 3.1563 -0.5979 0.3242
C -1.7852 0.2116 -0.5917
H -2.0645 -0.4978 -1.3774
C 1.2814 0.2075 -0.7534
N -1.6919 -0.2880 0.6957
H 0.6031 -2.1189 -0.0824
H 1.8999 0.6886 -1.5213
N -0.0667 0.7815 -0.4624
C 2.1116 -0.5825 0.1459
H -2.5239 -0.5247 1.2070
C 0.3891 1.0191 0.8154
H -2.2593 1.1890 -0.6534
C 0.8353 -1.0741 0.0660
C -0.2895 -0.2459 0.6707
H 0.4042 1.8326 1.5173
18

H 1.7687 -2.6026 -1.3327
O 1.5140 -1.4497 0.1583
C 0.2038 -1.2628 0.0894
H -0.6103 -1.9624 0.2808
H 0.0185 -1.1668 -2.7791
H -1.0161 2.4289 0.9845
H 0.5313 0.8072 -1.0495
C -0.1669 -0.0697 0.9930
H 0.7151 2.5223 0.9566
C -0.1884 0.8513 -0.2334
H -1.1680 0.5927 -0.6994
H -0.2312 2.9810 -0.4900
O -1.3895 0.1846 1.8108
C -0.1582 2.2665 0.3374
C 0.9743 -1.8798 -1.0894
H 0.6174 0.0332 1.7524
N -1.7858 -0.3204 2.6404
N 0.3713 -1.9534 -2.3301
18

C 0.4893 0.7802 0.4943
O -0.9312 0.9519 0.4455
C 1.5117 -0.2946 0.2288
C -0.4930 1.3289 -2.8961
O 2.2639 -0.9529 3.5276
H -0.8519 -2.0503 0.8701
H -2.4907 -0.0509 -0.1977
C -0.1877 -1.2843 1.2111
O -0.8613 1.1420 -1.6524
H -1.4107 -0.7588 -1.0674
N 0.3588 -0.5703 0.1773
C -1.5044 0.2398 -0.6058
N 0.2167 -1.0902 2.3922
C 1.3473 -1.0254 2.8891
H -0.9937 0.7069 -3.6151
H 2.3746 -0.8327 0.3976
H 0.2144 2.0401 -3.2731
H 0.9477 1.7206 0.6740
16

C -0.6438 -0.0261 -1.7051
H -2.5615 -0.8650 1.2413
H 2.3037 1.2986 2.0770
H 1.1302 0.0693 -2.6623
O 1.1958 1.6452 -1.4328
H -1.3882 0.0961 -2.4699
C -0.4321 0.2468 0.5509
H -2.7974 -0.9598 0.7009
C -0.8107 -0.6058 -0.4461
H -0.9100 -1.6517 -0.3342
C 0.9103 -0.1458 1.0038
O 1.3521 -0.6012 2.2798
N 1.6723 0.5811 1.8544
H 1.3590 -0.7398 0.2208
C 0.6258 0.6411 -1.8594
H -1.0056 1.0169 0.9808
18

O -0.6937 -0.9867 1.2180
H 1.5126 -1.5816 -0.3924
C -1.5477 -0.7703 -1.1433
H 0.4263 1.6315 -1.4113
H -0.9718 1.5996 0.4736
N -0.0242 -0.6277 -0.9633
N 0.0148 1.5385 0.6004
N 0.0299 -0.2107 1.9296
C 0.4019 1.0539 1.8075
C 0.8434 1.2684 -0.4807
H -1.5099 -1.0281 -2.1956
H 0.8345 1.7221 2.5450
H 1.7676 1.7838 -0.3240
H 2.1908 -0.1855 0.0592
C 1.2137 -0.4815 -0.3839
H -1.0935 -2.5153 -0.3412
H -2.6093 -0.7055 -0.8741
C -0.7854 -1.5047 -0.1237
17

H 2.2664 0.1929 -0.7149
H 0.7451 1.9295 0.4343
N 1.6505 -0.0429 -1.3943
H 0.0657 -1.2852 -1.7752
H -0.1682 -0.0953 2.6940
C -0.3213 -0.8085 1.8951
H -1.3413 -1.1616 1.8833
C 0.0467 1.1699 0.4185
H -1.7516 0.7146 -0.7437
H -3.1466 1.3043 1.0686
C -0.3029 -0.0028 0.6969
N -1.2153 0.6952 0.0192
H 0.4079 -1.5788 2.0760
H 2.4980 -0.3333 -3.2166
H 2.2690 -1.0156 -3.1927
C 0.7928 -0.6126 -1.5895
O -2.4949 0.9304 1.4409
20

O 1.0610 -1.8196 -1.6513
H -0.9380 1.2379 1.2074
H -1.0059 -1.4598 -1.6881
H -1.5783 0.4476 2.6271
C -1.5228 0.4706 1.5854
H 0.9526 -0.8048 0.8180
H -2.0196 -0.2082 0.9549
H 1.6180 0.8481 0.4229
H 3.4391 -0.8387 -2.1980
N -3.8056 0.8748 2.4247
H 2.8082 0.7565 -1.9963
H 3.4604 -0.3170 -0.5838
C 2.9093 -0.2198 -1.5106
C -0.0678 -0.9977 -1.4866
H -0.7071 0.9976 -0.9327
H -3.6094 -0.0897 2.3164
C 1.0966 -0.0236 0.0832
C 1.4720 -0.5828 -1.2562
C -0.0073 0.2216 -0.8233
H -3.5555 1.5071 1.6869
16

N -0.5190 -2.0862 -0.6692
H -0.4919 -3.0408 -1.0396
O 0.6293 -0.2256 1.5363
H -0.3282 1.5290 -1.6784
H 1.6532 1.3888 1.5244
C -0.5159 0.4708 -0.5186
H 1.1998 -2.7559 0.4272
C 0.7294 -0.0963 0.2158
H -2.0367 1.8891 -0.3020
N 1.6596 0.5808 0.9459
H -1.6554 1.0985 1.2436
C 0.6400 -2.0178 -0.1602
N -0.6250 0.5161 -1.7800
O 1.4504 -0.9877 -0.6089
H -0.5448 2.2671 0.5571
C -1.2445 1.4701 0.3067
22

H 1.8000 1.3415 -0.9984
H 1.2843 -0.2597 1.6074
H 1.8679 -2.2218 -1.0286
H 0.9589 0.7493 3.0236
C -0.2009 1.7852 -0.1755
H -0.7990 2.6352 -0.4324
C 0.7609 0.5883 1.9949
C 0.8677 -2.5927 -1.2742
C -1.1532 -0.5690 -0.9103
H 0.5826 1.6093 -2.3106
H 0.5653 -2.1447 -2.2131
H -2.2504 0.9883 1.0653
C -1.3570 0.4524 1.3264
C 0.7516 1.3201 -1.2784
H -0.4358 2.4013 1.8611
H -1.5236 -1.1991 -1.6595
N -0.9120 -0.4924 0.3306
H 0.9502 -3.6537 -1.3428
C -0.2068 1.4702 1.3448
C -0.2141 0.4177 -0.6666
H 0.1400 -2.5025 -0.5009
H -1.4764 -0.1232 2.2372
16

N 0.8281 -1.2197 0.2630
H -1.8113 -0.7130 0.0584
H 0.1106 -0.0455 1.7648
N 1.2109 1.3821 0.6165
C 0.3716 0.1196 0.7008
H 1.2715 1.9852 1.4501
C -1.3479 -1.4953 -0.5387
H -1.0350 -1.1120 -1.5160
H -2.1661 -2.1901 -0.7330
N -0.3288 1.4629 0.2103
O -0.2556 -2.1283 0.0331
H -1.0028 1.9144 0.7689
H 1.6238 -1.5767 -0.2666
O 0.1611 1.0316 -2.0011
H 2.0334 1.5773 0.0249
C 0.3366 1.0075 -0.8354
16

H -0.9831 -1.5236 -1.0026
H -1.4112 -0.1959 1.7509
C 1.0842 1.2675 -0.7934
C -1.2175 -0.6033 -0.3954
H 2.6437 0.9698 0.4039
C 0.0384 0.3275 -0.2564
H -3.3952 -0.1985 -0.3028
N -2.5440 -0.4172 -0.7630
C 2.0863 0.3797 -0.3388
C -0.9974 0.2987 0.8562
C 0.3672 -1.1827 0.6130
O 1.4078 -0.5213 0.6483
H 2.6549 -0.0409 -1.1948
H 1.1596 2.2571 -1.2333
H -1.1832 1.3799 1.0240
H 0.2893 -2.1968 0.9843
15

H 1.4107 1.3276 2.1751
C 0.2860 0.7883 0.7032
H 0.8313 -0.2167 2.4351
O -0.9846 -1.6009 -1.9984
H -0.7722 -0.6598 -2.0519
H -0.3504 1.8944 -0.9867
C 0.4593 1.2312 -0.7605
C -0.5470 -0.4252 0.4803
O 0.3569 -1.4521 0.3196
H 1.0168 -1.1239 -0.3223
O -1.7000 -0.6947 0.4001
N 1.3370 0.3876 1.7857
H 1.1947 1.2659 -1.5957
H -0.6070 1.0873 1.3398
H -1.9314 -1.8090 -1.9233
17

H -0.7689 2.0022 1.2298
H -1.3682 -1.6615 -1.0502
H 1.0893 1.4377 -1.2502
N -0.0050 -0.3443 -1.2552
N -1.0066 -1.2339 -1.8429
C -0.5212 1.1334 1.7232
H -1.3821 -0.7656 -2.6265
C 0.4952 0.1749 1.8709
H -0.3022 1.5001 3.8050
H 1.1262 -0.3796 -3.1353
H -1.4759 -0.8586 1.5002
N -0.9895 -0.0815 1.5797
C 1.0978 -0.6167 -2.1034
N 0.8280 0.5122 -1.2406
O -0.0099 1.0105 3.0722
O 1.4258 -0.4462 1.5055
H 1.7673 -1.3832 -1.7823
21

C -0.5506 -1.5213 1.0570
C 0.2085 -1.1274 -0.1765
C 0.8924 0.9224 1.0687
H -0.3251 -2.5092 1.4098
C 0.6883 0.2204 -0.0321
H -0.7344 -0.9486 1.9399
O 1.2951 0.1736 2.2781
C -1.2839 -0.9889 -0.1666
H 1.9266 1.0078 -1.3609
C -1.6342 0.4144 -0.8856
H 0.8864 -1.6543 -0.8470
H -0.3487 0.7587 -2.4610
H -2.0771 1.0317 -0.1093
H 0.4583 1.8576 1.4139
H -2.3958 0.1364 -1.5937
C 1.8849 0.8184 -0.2828
H -0.3771 2.0751 -1.3482
H -2.0909 -1.6793 -0.3116
H 1.4748 -0.6980 1.9498
H 2.8294 0.5106 0.1044
N -0.7269 1.2000 -1.6466
14

C 0.7232 1.0191 0.7457
H 1.6567 -0.3267 -1.9102
H -0.9025 -0.9217 -1.5448
H -1.4702 1.0582 1.2293
O 1.3344 1.0354 -0.5038
C -0.1091 -1.0740 -0.8423
C 0.9813 -0.1322 -1.1010
O -1.4933 -2.0817 1.0903
H -1.0868 1.7212 -0.2581
H 0.1843 2.0619 1.1886
C -0.6758 1.3644 0.6277
H 1.2893 0.4237 1.3736
C -0.7359 -1.8115 0.2543
O 0.3046 -2.3360 -0.3492
19

C -0.5084 1.5241 0.6965
N 0.5365 -1.3995 1.1399
C -0.6410 -0.1937 -1.1648
H -1.9707 -1.4393 0.2431
C 1.3828 -0.5318 0.4226
O 2.0096 0.2400 1.4551
H 2.9231 0.2658 1.7087
H 2.2257 -0.6861 -0.2748
H -2.7112 0.8595 -1.4105
H 0.1187 1.8776 1.5189
C -1.6780 -0.6667 -0.4067
O 0.8507 -2.7921 -0.8398
C 0.2763 0.5748 -0.1736
C 0.7433 -1.8954 -0.0727
H 0.9254 1.0991 -0.8766
H -0.3336 -0.6676 -2.0704
N -1.9160 0.3591 -1.2508
H -0.8878 2.3258 0.0653
H -1.3455 1.1465 1.2904
18

H 0.1155 1.7412 0.8721
C 1.1188 -0.6224 -0.1765
C -1.2826 -1.1247 -0.5843
H -0.8323 -1.7200 -1.3603
C 2.0082 0.1108 0.8421
H 2.0126 1.0859 1.2474
H 2.3433 -0.5954 1.5525
H -2.4093 1.3198 -0.6133
O 1.1738 0.1031 -1.3766
H -1.0778 2.2588 -1.3421
C -0.5098 1.1528 0.2613
H -2.3388 -1.0237 -0.7119
C -0.3075 -0.2392 0.1134
C -1.0197 -1.1493 0.8260
C -1.4019 1.5716 -0.6109
H 1.2787 -1.6729 -0.1664
H -1.0421 -1.5953 1.7656
O 2.1709 0.3988 -0.5380
17

H -1.5183 -1.3651 -0.4313
O -0.2030 3.8913 0.0546
C -0.8992 -2.1727 -0.0079
H -1.8244 2.9213 -0.6695
H -0.7017 0.5202 0.9902
N 0.5038 -0.4067 -0.4746
C 0.5797 -1.7855 -0.3517
H -1.6075 -3.0180 0.1190
N 0.2943 -2.7127 0.6038
C 0.0685 0.6809 0.2026
H 0.3632 -3.6996 0.6802
C -0.7887 2.8871 -0.2904
N 1.3005 1.4734 0.3845
H 1.4570 -2.1665 -0.9326
H 1.3207 2.1482 1.1043
N -0.3034 1.6696 -0.6971
H 1.9586 1.1350 -0.2841
18

C 1.0191 -0.0570 0.2865
H -2.4184 2.4448 -0.0063
H -2.4145 -2.3967 -1.6394
H 2.1092 1.6430 -0.0682
H 2.8236 -1.2084 -0.0684
C -0.1198 -0.6955 -0.2426
H -2.1282 0.8331 -0.8058
O -0.7727 1.4873 0.5755
H -0.7566 -2.7003 -2.3526
H -0.9229 -0.3655 1.5761
H 2.4898 1.5946 1.5301
H 1.3578 1.0818 1.8173
O -0.7665 -1.6740 -0.6966
C -1.3830 -2.2816 -1.6289
C -0.3980 0.1341 0.7907
C 1.8726 1.0048 0.8140
C -1.8817 1.5530 -0.0837
N 2.2902 -0.3974 0.2021
17

C 0.0261 -0.9172 2.3524
H -2.7254 0.7165 -1.3363
H 2.6595 -0.2975 -0.5440
H -0.4526 -0.5520 -3.1536
O -0.6780 0.3576 -2.8269
C 0.5203 0.3696 -0.8209
N -2.0788 -0.0051 -1.0537
H -0.3008 -1.7809 2.8409
O 2.5001 -0.2739 1.9975
O 1.7492 -0.3035 -0.7414
C 1.4583 0.0156 1.8767
H -0.3611 1.0703 2.3267
H -2.3496 -0.5218 -0.2278
C -0.7926 0.1266 -1.5025
H 0.8968 1.2882 -1.3298
O -0.1632 0.4611 0.3688
C 0.0919 0.2463 1.7740
24

C 1.7273 1.1275 0.2552
C 0.0667 1.2841 -1.8570
H 1.1479 1.1896 -2.1249
H 0.3696 -1.2041 2.0491
C 0.4873 -1.2870 -0.7453
H 0.1693 -1.4323 -1.8033
C -0.6110 -1.7450 0.1597
H -0.3702 0.8430 -2.7702
H 1.4369 -1.8592 -0.8328
H 0.0348 2.3768 -1.7113
H -2.0273 0.6589 1.0959
H -1.3864 -1.4998 2.1765
H -0.6715 -0.1406 2.7960
H 2.3817 1.8244 -0.2130
O 2.3413 -0.1369 0.5767
H 0.0940 2.1710 1.1692
C 0.9598 -0.0925 0.1132
H -0.4307 -2.7428 0.5073
C -0.6312 -0.7629 1.8498
C -0.8627 0.7854 -0.7281
C -1.0254 0.3705 0.7949
H -1.5907 -1.5626 -0.2488
H -1.8477 0.6568 -1.1982
C 0.2381 1.1776 0.6895
18

H 0.1173 1.1198 -3.2851
O 0.3254 -1.6838 2.2046
H -0.1090 -1.1611 -1.5158
H -1.5890 1.5838 0.8632
C 0.3711 0.6808 0.3200
C -0.1277 -0.3896 -0.7389
O -1.4492 -0.1512 -0.2242
C -1.0202 0.6609 0.9011
H -1.0935 0.2850 1.9008
C 0.0060 1.4537 -2.2595
H -0.3310 2.4582 -2.0125
C 0.6586 0.8404 -1.1386
H -0.2565 -1.8965 2.9147
H 1.4462 -1.7254 0.3310
O -0.3689 -2.3480 1.1374
H 1.1828 0.8379 1.0094
C 0.5240 -1.6358 0.8400
H 1.7138 1.0707 -1.2477
21

C 0.1347 2.1993 0.9162
N 2.1633 -0.5467 -0.9654
C -1.9165 -1.0035 0.0929
C -0.7595 -1.0432 0.8703
H 0.3562 3.0200 1.5752
H -0.9625 0.2889 -1.2298
H 0.6699 -2.3785 -2.5422
H -2.2425 -1.9629 -0.2464
C 0.9520 -0.6149 -0.7270
H 3.0256 -0.8751 -0.6701
O -0.0406 -2.4928 -1.8995
C 1.3592 1.4705 0.5622
H -2.6377 -0.2470 0.2888
C 0.1268 -1.4816 -1.2204
H -1.6410 2.7528 -0.0287
H 2.3384 1.5908 0.2246
H 0.5509 0.3499 2.2269
C -0.5870 -0.4162 -0.4458
H -0.5798 -1.6025 1.7250
C 0.6353 0.8813 1.3275
N -0.9452 2.1114 0.1655
15

C -1.4036 -0.4910 0.5455
C -0.5697 -1.7204 0.5655
H -0.9323 1.4645 1.2420
C -0.9533 0.4246 1.3812
H -0.4284 0.0915 2.2431
H 2.2022 0.1525 -1.5476
H -0.4411 1.2146 -1.6343
C 1.8342 1.0974 -1.3104
C 0.4521 1.1375 -1.1373
H 0.4959 -1.4486 0.5526
H 2.5918 1.7105 -1.6713
H -0.9814 -2.2222 1.4618
O 1.1519 1.6266 -0.2530
H -2.2453 -0.4994 -0.0655
O -0.7730 -2.5381 -0.3723
18

H -1.3536 0.4022 2.3592
C 0.0898 0.4982 0.5807
H -0.8722 -1.7999 0.9582
H 0.4350 0.3321 -2.4833
H -1.3751 1.8170 1.3069
C -0.0774 -1.2111 -1.0376
C 0.8212 1.2372 -0.5256
C -0.0093 0.2737 -1.4916
C -0.9536 0.8379 1.4619
C 1.1252 -0.3575 1.0295
C -0.9493 -1.3978 -0.0445
H -1.0072 0.7133 -1.6077
H -1.9691 -1.5091 -0.4094
H 1.7906 -0.8405 0.3342
H 0.7313 2.2159 -0.0020
H 1.1792 -0.5263 2.0870
H 0.5523 -1.9159 -1.5864
H 1.8421 1.2306 -0.9295
15

H -0.0697 -1.5146 1.4021
H -1.4434 3.9037 0.5331
H 0.4929 -0.5599 -1.7897
H 2.7342 -1.9911 -0.6972
C -0.0092 -1.4924 0.2870
N -1.1181 1.8972 0.2638
C 1.0355 -0.4437 0.2284
O -0.6170 1.0756 0.3791
H 1.7858 0.2190 0.5742
O 1.9471 -2.0644 -1.2061
C 0.9553 -1.0703 -0.9516
H 0.0345 -2.5790 0.1420
H -1.0180 -1.1938 -0.0000
H -2.8713 2.8569 0.3896
C -1.8385 2.9567 0.4451
18

C 2.3986 -0.2103 1.3767
H 0.6088 2.3710 -0.8268
C 0.5370 1.3423 -1.1530
H -2.5160 -0.6480 0.0061
H -1.6074 0.0584 -1.7507
H -0.9139 -1.9295 1.6685
H 3.1546 0.4662 1.6728
C -0.1911 -1.1940 0.0259
O 1.7708 -1.0246 1.3294
N -0.8644 0.2937 0.9317
N -2.1369 -0.0600 0.6957
O -0.1868 -2.1113 1.0344
H -0.7569 1.2199 1.3521
O -0.2409 1.3901 -2.4014
H 0.0893 -1.7656 -0.8598
H 1.5800 1.0681 -1.3336
C -0.0408 0.2381 -0.2552
C -0.6839 0.4956 -1.5126
13

N 0.1516 1.0882 -3.4092
H 1.2537 -1.6827 1.3394
N -1.5181 -1.8118 0.2032
C -0.5783 -0.9441 0.4959
C -0.5032 0.1036 1.3982
H -1.0295 0.8264 1.9075
C 0.3916 0.9107 -2.3570
C 0.1789 0.3271 0.1838
N 0.3853 -1.2337 1.4224
C 1.0758 1.2759 0.0843
C 0.5398 0.8200 -1.0568
H 1.6577 2.0252 0.4024
H -2.0055 -1.7048 -0.6142
17

H -2.1051 0.4526 -0.5703
H -0.9607 -1.2843 1.2514
C 0.5905 -0.2080 -0.5739
H -0.8732 0.6426 -2.1439
O -0.5619 -0.2515 -2.3217
C 1.0369 -0.4343 0.8451
C -1.1860 0.4482 0.0327
H 1.9936 1.5755 0.3339
O 0.2112 -1.9887 -0.3448
H 1.4347 -0.7294 1.7772
C -0.1857 1.1396 1.0670
C -0.4295 -0.9031 0.3700
C 1.1253 0.9554 0.3705
N 0.7486 -0.2405 -1.9270
O -1.4779 1.5448 0.9393
H 0.0594 1.5432 2.0705
H 0.5797 -2.2621 -1.1759
15

N 1.0190 -1.1653 -2.4022
N -1.3793 -1.3137 0.7419
C 0.2765 -0.0176 -1.5537
N 0.1249 1.7851 1.6734
C -0.0494 0.8950 1.0125
H 0.9722 -0.8707 -3.3282
H -0.9953 0.4064 3.0717
C -0.8345 1.2254 2.3911
C 0.6201 0.5377 -0.2170
H 1.6052 0.9538 -0.3087
H -0.3303 0.4812 -2.2716
C -0.4719 -1.4345 0.0998
O 0.5652 -2.1749 -0.3587
H -1.4140 2.0716 2.7844
C 0.2915 -1.3796 -1.3347
18

C 0.4306 -1.3895 -1.2340
H -0.3209 1.5437 -2.2071
H 0.2480 1.5431 1.4990
H -0.1886 -2.5068 2.7495
H -0.3598 -1.2857 -0.4930
H 0.6294 3.0353 0.0096
C -0.0327 -1.6269 2.1710
C -0.7893 0.9747 -0.1507
H 0.0997 -0.6890 -2.0836
H 0.9236 -2.2623 -0.6651
O 0.3829 2.9452 -0.9402
C -0.1286 0.6519 1.0277
H 1.3701 -0.7888 -1.1047
H -1.8733 0.7593 -0.0839
H -0.2606 -0.0037 2.7655
C -0.2407 1.7658 -1.1473
H 0.1972 -2.1912 -1.9617
N -0.0871 -0.4750 1.8490
16

C 2.1674 1.9271 1.7164
C -1.6732 -1.4837 -0.5686
H 2.7350 1.3932 0.9297
C 0.9280 -0.2889 0.4377
H 1.7139 2.8054 1.2164
O 1.7219 -0.6881 1.1487
O 1.1411 1.4018 2.2521
O 0.2876 0.2815 -0.2498
H -2.0024 -2.4642 -0.3000
H -0.2102 -1.5409 -2.1348
H -1.6815 -0.9493 0.3511
H -3.1318 -0.5237 -1.6227
H 2.9386 2.2191 2.4664
H -1.7401 0.2420 -2.1555
C -2.0823 -0.6557 -1.7038
N -1.1121 -1.6756 -1.7832
17

H -3.2718 1.8564 -0.9319
C 0.0412 -0.8537 1.5196
H -0.4601 1.0034 0.7882
C -0.6617 -0.4042 -0.8485
C -2.3463 1.4601 -1.1979
C 0.0477 0.1572 0.3907
H -0.7025 -1.3668 2.0580
C 1.3148 -0.5143 1.3450
H 0.9488 1.0535 -1.4893
N -1.4306 0.5394 -1.6365
H 1.5315 -0.5367 -1.1730
H 2.7591 -1.4675 0.6142
O -1.2392 1.8368 -1.0272
H 1.8086 0.1782 2.0142
O 2.1067 -1.7425 1.2487
H -1.1818 -1.3445 -0.7014
C 0.7354 0.1452 -0.9729
16

C 1.3153 1.3895 3.2875
H 0.5353 0.5345 0.3497
H -0.9614 -0.3827 0.5656
H -1.1397 0.8192 -1.9862
O -0.5960 -1.7862 -4.1715
H 0.6209 0.5732 3.0856
H -0.5127 -2.1442 -1.0959
H 1.9651 1.2691 4.1759
H -2.0391 -1.4305 -1.5423
C -0.4318 0.0911 -1.5559
C -0.6885 -1.6380 -3.0946
H 0.7236 2.2751 3.4637
H 1.9159 1.4003 2.4006
C -0.2727 0.0759 -0.1079
H 0.5282 0.3500 -2.0377
C -0.9625 -1.3964 -1.7364
19

N 0.7561 1.2839 -1.0093
H -0.4696 -5.3351 0.2125
H -0.7020 -2.0824 0.0257
H -1.9906 0.9208 0.2049
N 0.9614 2.2997 -0.1573
H -1.1198 -1.4995 1.7861
C 0.1611 1.0586 0.2529
O 2.1856 1.3643 -2.4320
H 0.6495 -0.7048 -1.6671
C 0.4653 -0.0550 -0.8510
C 0.4245 -0.4652 0.5599
H 0.5800 3.1950 -0.3530
H -0.4973 -4.7640 0.5614
C -0.5878 -1.4161 0.8525
H -1.2272 0.9799 1.8098
H -1.3359 2.4071 0.8331
H 1.2848 -0.5122 1.2347
C -1.1697 1.3424 0.7918
H 1.6315 1.9825 -2.6556
17

N 1.4574 0.4549 0.2604
H -1.4052 1.0279 -0.5154
H 1.8007 0.8882 -2.7873
H -1.1074 0.9877 3.2169
H 1.2764 -0.2783 2.5755
H -2.2297 -1.3788 -0.3797
H -0.5948 -1.5980 -1.0384
C 0.3715 -0.0180 2.1192
C 1.0785 0.5367 -2.0789
H -0.9460 -1.7660 0.6786
O -0.7348 0.3420 2.5783
O 1.5174 1.0351 -0.8207
H 1.2978 -0.5228 -2.1346
C -1.1770 -1.1737 -0.2094
C 0.2094 0.2806 0.8093
C -0.9187 0.2425 -0.0028
H 0.1046 0.9398 -2.2710
23

H -3.2484 -0.9291 1.3660
O -0.7260 1.7706 0.8457
C 1.2713 0.5073 0.1513
H 1.7320 0.5160 -1.9973
H -0.7758 2.2753 0.0167
H -2.3743 0.1881 -0.9015
H 0.2148 -0.8894 1.8311
C 0.9363 0.8452 -1.3346
O 0.4198 -1.7589 0.0809
H 1.5975 2.7456 -1.4124
H 3.3980 0.1679 0.0423
C 0.2567 -0.5178 0.7988
C -1.9374 -0.2032 0.0304
H -2.6405 -2.1505 -0.0969
H 1.4740 1.4859 0.6019
H 0.0694 0.2682 -1.6933
H -2.1950 -2.2300 1.5481
C -2.5016 -1.4728 0.7642
H 2.5838 -1.1985 0.8739
O 0.7900 2.2352 -1.5138
H -0.0049 -1.8186 -0.7670
C 2.4783 -0.2906 0.3282
C -0.8182 0.4541 0.4373
22

H 1.1613 1.0836 1.1552
H -2.6148 -2.0706 0.9529
H 1.8445 1.7559 -2.6544
H 1.4345 3.0998 -1.5296
C 1.5354 2.0321 -1.6651
H -1.5203 -3.3316 2.8208
H -1.2729 -2.7462 0.0176
H 3.4328 1.7142 -0.3517
H -1.7204 2.0230 -1.3641
O -1.6355 -3.7011 1.8903
C -0.7367 -1.6043 1.8221
C -0.8725 1.4563 -1.7251
C -1.5735 -2.5039 1.0660
H -0.5016 1.8830 -2.6588
H 0.3402 -1.5625 1.7183
C -0.3416 0.4700 -0.7189
H -1.1477 -0.9875 2.6174
C 2.4130 1.4615 -0.5652
N 1.7757 0.6125 0.4728
H -0.2665 -0.6276 -0.8374
H -0.8251 0.5926 0.2608
C 1.0918 0.9506 -0.7237
17

C -0.7288 -1.0801 -1.5927
N 1.3486 0.5254 1.3167
N 0.9703 -1.3716 -0.2308
H -1.2984 -1.9332 -1.3050
C 1.2490 -0.0876 0.2031
H -2.8381 1.1530 -1.3411
C -2.1756 1.0576 -0.4747
H 2.8957 -0.5784 1.9082
H 3.4216 0.1690 0.4264
H -0.2595 -1.1468 -2.5592
H 1.3190 1.3829 1.7717
C 0.0362 -0.2882 -0.5772
H -3.1171 2.2586 1.3194
C 2.5676 -0.1205 0.9879
H 0.3954 -1.8468 0.4916
C -2.5891 1.7767 0.5264
C -1.1966 0.1299 -0.8708
14

N 0.8313 -2.1123 -0.9228
H -1.4285 0.3962 -1.3059
H 1.1260 0.6967 -0.3863
H -1.0288 2.2180 0.7576
O -0.0734 -2.1031 -2.0104
H -0.1961 1.8450 2.2125
C 0.4442 0.5962 0.4252
C -0.7658 -0.0541 -0.5750
H 0.7790 -0.1401 1.1221
O -1.1231 -1.3535 0.0124
H 0.7812 -2.9428 -0.3621
C -0.2723 -1.2962 -0.9220
C -0.0780 1.8219 1.1181
O 1.0044 2.4282 0.8365
21

H -1.3948 -1.1638 -2.7634
H -1.0673 -2.6503 1.8668
H -1.3491 4.1038 -0.2756
C 0.1818 -0.6253 0.1873
O -1.3291 3.1785 -0.3219
N -0.8200 -0.7211 -2.2103
H 2.0612 0.4582 -0.4438
C -0.9733 2.6516 -1.1581
C 1.4643 -1.1747 2.1866
H -0.9083 2.4899 -2.1315
H 1.0669 -2.1205 2.2493
C 0.8153 -0.0371 1.5148
H 0.9741 0.9406 1.8959
C -0.0231 0.3046 -2.0466
H 2.4302 -1.0665 2.5185
H 0.5708 0.9230 -2.6231
C 1.3566 -0.0481 0.1207
C -0.8449 -2.0424 1.0310
N -0.4924 -0.2057 -1.0646
H -1.0846 -2.5081 0.1328
O -0.6342 -0.6864 1.3350
19

C -1.9505 -0.1919 -0.3882
H -3.0315 -0.0492 -0.3341
H 2.9610 -0.7232 -0.0789
H 2.0659 -0.6029 2.7629
H -1.7734 0.6140 -2.4090
C 1.6983 -0.2043 1.8666
H 0.6648 1.2691 -0.6050
C -0.0052 0.5628 -0.0999
H -1.8061 -1.1675 0.0688
H 1.4769 0.8318 1.8675
O -0.6156 2.9170 -0.6420
H 1.2290 -2.6263 0.8073
H -1.1362 2.3400 -1.0339
C 2.1203 -0.6435 0.5485
H -0.9474 -0.8432 -2.1376
C 0.7079 -0.5391 0.1331
C 1.1860 -1.5682 0.9690
O -1.2942 0.7561 0.4799
N -1.5501 -0.1315 -1.7749
22

C 1.0434 -2.5951 -1.8639
O -1.9357 1.6308 1.0040
C -1.0518 2.5698 1.3267
H -0.6532 2.6939 2.3449
H -2.8699 3.2424 0.1254
H -0.3727 -1.5358 1.3030
H -0.2199 2.8719 0.6881
C 2.0235 -1.1753 0.0167
C -2.4246 3.0077 1.0918
H 1.7294 0.4445 -1.3262
N -0.0911 -1.8218 0.3812
H -1.2173 -1.6282 -1.6496
H -2.7894 3.6052 1.9302
H 1.4558 0.8669 0.4696
C 0.6622 -1.7407 -0.7569
H -1.5573 -0.5310 -0.3918
H 0.3515 -3.2993 -2.2584
H 2.0214 -2.5923 -2.2759
C 1.6541 0.1582 -0.2967
H 2.9411 -1.7195 -0.2493
C -0.7895 -1.2320 -0.7210
H 2.0899 -1.2202 1.1082
16

H -0.6024 2.5306 -0.9493
C -0.9077 -0.6365 0.4093
C 0.6786 0.0734 1.8534
H -0.9750 -2.5289 0.6227
H 0.8047 -1.0390 2.5023
C 0.2933 0.3299 -1.3427
C 0.2230 1.8305 -1.0164
C -0.2485 0.6726 -0.0357
N -0.3196 -1.7786 0.5708
H 1.1381 2.3030 -1.3712
N 0.2421 1.1356 1.2673
O 1.4574 -0.1009 -1.6127
H -1.9828 -0.5273 0.4833
O 1.6943 -0.2606 2.3344
O -0.7128 -0.5344 -1.9471
H -0.7828 -1.4696 -1.7683
21

C -0.2977 -0.3573 1.0226
C 0.9147 -2.2055 0.1547
H 1.8222 -0.3529 1.2490
C -0.4242 -1.6718 0.5042
H 0.6205 -1.0713 -1.7999
H -1.2602 -2.1569 0.0196
C -0.0105 1.4961 -0.7950
C -1.2298 2.0087 0.2576
C 1.0459 -1.1513 1.3056
H -2.0687 2.0364 0.9610
H -1.3084 2.7892 -2.0494
H -0.7378 0.0360 1.9184
H 2.2664 -1.0717 -1.0642
H 1.1869 -1.6637 2.2669
H 1.2172 -3.2535 0.2554
C 1.2479 -1.4181 -1.0132
C -0.8112 0.5497 -0.1354
H -1.5597 0.0924 -0.7722
O -0.6537 3.3469 0.0815
H 0.9331 1.3933 -1.2909
C -0.8931 2.6253 -1.0762
16

N -1.3385 -0.9457 -0.1281
C -0.1856 0.7469 1.4768
C -1.0087 -1.5095 -1.3906
C 0.2259 -1.2473 -2.1465
H -1.0269 0.8441 2.1256
H 0.7924 1.5603 3.0110
H 0.2960 -0.1764 -2.1845
C -0.7050 0.2745 0.0953
H 1.2651 -0.6839 0.7682
C 0.7737 0.2346 0.4041
H 1.0575 -1.8028 -2.6391
O -2.0234 -2.1653 -1.6644
N 1.1302 1.4451 2.1066
O 0.5935 1.8450 0.9403
H 1.4738 0.5590 -0.3616
H -1.3199 1.0214 -0.4131
18

H -0.9003 3.3020 0.1793
O 0.4150 0.8708 -0.7196
H 0.4289 0.1774 2.4740
H -3.5458 -1.0810 -1.5174
H 0.5919 3.2845 -0.5611
H 3.2002 -2.6298 0.0167
C 1.0059 -0.9107 0.5590
C 0.6218 -0.1354 1.5401
N -1.6624 -0.6723 -0.4701
N 1.6553 -1.8077 0.0255
H -0.8552 -2.4350 -1.0801
C 0.0742 2.8440 0.2611
N 2.3273 -2.8120 -0.3837
H 0.7597 2.8937 1.0863
C 0.4069 0.4263 0.3980
O -0.4607 1.5034 0.3440
N -1.4653 -1.7205 -1.0322
C -2.5973 -1.0975 -1.1199
11

H -1.8992 0.3531 -0.8475
C -1.1340 -0.2877 -1.1289
C 0.9860 -1.2223 -0.2301
H -0.5660 -0.5092 -2.9032
O 0.4257 0.6631 1.6502
N -0.2177 -1.2245 -0.7169
N 0.5847 1.7759 1.6678
N -0.4284 -0.8504 -2.0029
H -0.1386 2.3686 1.8408
N 1.9932 -1.4222 0.1077
H 0.3943 0.3556 2.5630
15

O 1.4451 0.3488 1.0551
H 1.6808 1.6575 -0.5052
H -1.1217 -0.1563 1.5174
C 0.5903 -1.9165 0.2471
N -2.5551 0.0791 -2.1624
C -1.8014 0.3798 -1.5077
H 0.8641 -2.2026 -0.7425
C -0.7902 0.3742 0.6932
C 1.2422 -1.0123 0.9592
C -0.6097 0.6998 -0.5337
H -1.1264 2.7410 -0.6758
H 1.9138 -1.6312 1.4917
C -0.4069 1.9930 -0.5101
H -0.1416 -2.5412 0.7123
C 0.8167 1.1872 -0.0390
18

C 0.5607 -0.5160 0.9550
N 1.1461 1.2964 -0.6234
O 0.1362 -0.6783 -1.4015
H -1.0799 1.0466 1.4214
H 2.9139 1.3756 0.5195
H 1.4014 -0.4794 1.6175
H -2.4149 -1.1257 0.2482
C -1.1225 -0.9853 -1.5962
C -0.7583 0.1754 0.8798
H -1.5055 -1.9816 -1.6959
H 2.2953 3.0018 0.0380
C 2.1638 1.9405 -0.0209
H -1.7778 -0.1619 -1.8495
H 1.4549 1.2339 -1.6129
C -1.5353 -1.1547 0.8882
H -1.9322 -1.4756 1.8573
C 0.2751 0.2103 -0.3029
O -0.2211 -1.7221 0.6783
14

H 0.9124 0.8911 1.6043
H -0.0054 -1.7334 1.6062
O -0.9265 0.6369 -2.1841
C -1.2273 -0.6472 -0.0460
C -0.5920 0.1511 -1.1338
H -2.2560 -0.8029 0.1520
C 0.6835 0.3998 -0.4363
H 0.9597 -2.0657 -1.0217
H 0.8813 2.3133 0.6311
H 1.5572 0.5582 -0.9965
C -0.1372 -1.2617 0.6906
C 0.3478 -1.3572 -0.5037
C 0.4194 1.3422 0.7361
H -0.6170 1.5755 0.9018
23

H 2.0250 -1.8140 0.2658
C 1.4147 0.7556 1.3831
H -1.7769 1.4374 0.5118
C -0.6467 -0.9568 1.1440
H -0.0106 1.8532 2.4732
H -1.7291 -0.4134 -1.7774
C -1.1329 1.0147 -0.2456
N -1.1945 -0.9003 2.4214
C 0.2456 0.1560 0.9795
H -1.2399 0.9373 -2.7825
H 2.4460 0.6600 1.4705
H 0.7054 1.2069 -1.5681
H -0.9193 -1.9101 0.7103
C -0.0688 0.6535 -1.0519
H -2.3585 1.3835 -1.6611
C -1.4781 0.6849 -1.7034
H -1.6685 -0.0067 2.4212
H 0.8376 -2.5249 -0.8537
N 0.4512 1.3157 1.8495
C 1.3367 -1.5941 -0.5613
O 1.9923 -1.0839 -1.7479
H 2.4238 -0.2925 -1.3975
C 0.3455 -0.5619 -0.2798
16

H 0.1257 0.7088 -3.6168
H 1.2384 -1.7078 -0.1430
N -1.7115 0.2703 2.9299
C 0.9404 -1.2699 0.8008
N 1.1944 0.6406 0.8274
N -0.1212 1.1001 -2.7309
H 1.5597 -1.6227 1.6038
C -0.4418 -1.1574 1.4734
C -0.1823 0.4047 -1.5370
C -0.9747 0.0815 2.0892
H -0.0507 2.0958 -2.5922
C 0.0605 0.0475 0.9938
C 0.1240 0.8869 -0.2354
H -1.0335 -1.9264 1.8706
H 0.0070 1.9672 -0.2139
H -0.7343 -0.5192 -1.5195
23

H -1.4563 3.6617 -1.4320
H 0.0457 -3.3994 0.1986
C -1.4766 -1.0607 0.3007
H 1.2562 -1.0081 -1.6960
H 2.1979 1.1749 0.6580
N -0.1599 -1.3968 0.4532
C 0.1789 0.2412 -0.5031
H 0.5675 1.4803 -2.1633
H 0.8151 3.4599 -0.1004
C 0.9069 -1.0845 -0.6536
H -1.9252 -0.9460 -0.6541
H -2.0386 -1.1297 1.2024
C 0.7124 1.4545 -1.0821
C 0.2052 2.6934 -0.5161
H 1.7540 -1.5496 -0.1389
H -0.1876 0.3466 1.9749
C -0.0557 -2.8178 1.1059
C -1.0697 2.8093 -0.9328
C 1.2116 0.9651 0.3277
H 0.6799 -2.4925 1.8312
H -1.7600 1.9819 -0.9024
C 0.1982 0.1577 0.9933
H -0.5999 -3.5413 1.7290
19

H 1.3961 0.7683 -0.4160
H 1.9392 -0.1585 -2.3480
C 1.2437 1.1889 1.5814
H 0.6860 -1.3539 1.2143
O 0.3756 2.1360 0.9850
H -0.9367 0.7086 2.1156
C 1.0041 -0.0552 -2.7987
H -2.2035 -0.7522 -0.0394
H -1.2500 0.6666 -0.2530
C -0.2415 -1.1800 0.7177
O -1.1613 -0.5863 -2.0349
C -1.0197 -0.2606 1.7068
H 1.5882 0.8292 2.4770
C -1.3070 -0.2646 0.2593
H -0.2970 -2.0188 0.0300
H -1.5786 -0.8331 2.3953
C -0.1128 -0.3620 -2.2760
H 0.9146 0.4049 -3.7425
C 0.9607 1.1229 0.4262
19

O -0.5981 0.4752 0.8011
H 0.8603 2.1822 -0.7011
C -2.3456 -1.2196 1.3466
O 2.7477 0.0012 -0.1704
C 0.3678 -0.2992 -1.2486
C 0.0906 -0.6256 1.3932
H 1.0987 1.3755 -2.2161
C -0.4672 0.7190 -0.6910
H -1.3888 1.0825 -1.0947
H 3.3349 1.8358 -0.4176
H -2.7310 -2.0739 0.8134
H -2.9803 -0.3609 1.3430
C 2.5524 1.0636 -0.5094
C -1.0365 -0.8409 0.9568
H 0.8926 -1.0506 1.9601
H -0.0690 -0.8453 -2.0917
H 0.9667 -1.0233 -0.7239
H -2.2494 -1.5476 2.3698
C 0.9543 1.1518 -1.1194
18

O 0.4171 -2.1638 -0.5717
H -0.4315 -1.5822 1.3684
C -0.9522 1.0637 0.3521
H 2.1018 -1.0924 0.5345
H -2.3654 -0.2252 1.4701
H 0.0744 2.7575 -0.2598
O 1.9836 1.1520 -0.5127
H -2.5178 1.5447 1.6656
C -2.2946 0.7358 0.9689
N -0.6645 2.2295 0.0994
C 1.7478 0.0803 -1.2001
N -0.1038 0.0428 -0.0102
C -0.0610 -1.2892 0.3940
C 1.2351 -0.8189 -0.0715
H 2.7262 -0.2652 -1.6027
H -2.9959 0.7663 0.1229
H 1.0653 -0.0503 -2.0622
H 1.0354 -2.8855 -0.6850
16

C -0.2897 0.1586 -0.3969
H 0.7968 0.4770 1.7555
N 2.0134 1.6022 -3.4484
H -1.7091 -1.7652 3.0433
H 0.0805 -1.9190 2.9520
H -1.9587 0.7251 1.0801
C -1.0805 -1.3508 1.2041
H 2.9158 2.0270 -3.0741
H 2.0577 0.8645 -2.6487
H -1.6669 -1.9070 0.4885
H -0.0188 1.0085 -0.9657
H -0.5114 -0.6120 -1.1331
N 0.2459 0.3318 0.9494
H 1.1065 1.9455 -3.0505
C -0.8284 -1.6691 2.4526
C -1.1532 0.0828 0.7920
16

C 0.4369 0.5360 0.9705
H -2.1991 -0.3543 1.1729
H -1.6016 -1.3234 -0.9328
H -0.8698 -0.4238 -2.2579
C -0.0047 0.3880 -0.5268
C 1.2549 0.9262 -1.1272
H -1.4420 -0.9753 2.7067
O 0.9786 1.3579 1.7209
C -1.3324 -0.7607 1.6603
H 0.5794 -1.6902 1.1309
H 2.9945 0.3963 -1.1355
C -0.0538 -0.8061 1.1353
H 0.9520 1.4237 -2.0477
N 2.3945 1.0527 -0.5915
H -1.0992 0.7777 -0.6605
C -0.9883 -0.5247 -1.2176
25

O -0.3986 1.0297 2.0980
H 0.5204 0.2877 -2.6682
H 2.4279 -0.2981 0.8895
H 1.2642 1.6114 -1.1946
C -1.9553 1.1608 -1.3484
C 0.1911 -0.6434 -2.1266
H -1.5135 -1.8990 -1.0388
H -1.2057 1.8718 -1.6989
H 1.7772 -1.8888 3.1413
H 1.1229 -1.2724 -2.0650
N 1.5015 -1.8427 2.2196
C 0.6923 0.2899 2.3296
H 1.1942 0.6030 3.2056
C 0.0927 -0.1294 -0.7004
H -0.3887 -1.6171 1.3893
H -2.0878 0.3965 -2.1094
H -0.3277 -1.1338 -3.0235
H 1.0630 1.7507 0.4744
C -0.7654 -1.1188 -1.0776
H -2.9538 1.5574 -1.3661
C 0.4437 -1.0750 1.6993
H -1.2910 0.7880 2.1237
C 1.6223 -0.5212 1.5010
C 0.7934 1.1111 -0.3739
H -1.8195 0.9818 -0.2801
19

H 2.5286 -0.5706 -0.5354
C 0.5303 -0.0397 -1.1558
C 0.6993 1.5693 0.9040
O -0.6276 1.9463 0.8888
O -2.4039 -0.0001 -0.1337
H 0.1341 -2.2890 -0.3558
H -1.6838 -0.8282 -1.9878
H -1.6005 -1.3494 1.0120
H 1.3872 1.5329 1.7360
C 0.1470 -1.2135 -0.3382
H -0.8330 0.4300 2.1576
H 1.7177 -0.7138 0.9278
N -1.8706 -0.5455 -1.0791
H 0.0269 0.9168 -1.2328
C -0.4541 0.6506 1.1642
H 0.7969 -0.3151 -2.1562
H 1.1694 2.1087 0.0837
C -1.1861 -0.7050 0.2363
C 1.5223 -0.5849 -0.1357
19

C 0.6147 -0.8888 -0.8625
H -1.0233 3.0695 1.8944
H -0.2177 0.5109 -2.3611
H -1.4203 1.7062 -0.6545
C -0.1855 -1.6798 0.3034
N 0.3889 -0.1828 -2.0583
H 0.4920 2.5648 1.1092
H -0.6933 -1.6902 1.2739
C -0.5400 2.3533 1.2716
O 2.2376 -1.7076 -2.5183
N -0.6923 0.9152 1.1266
H 1.6798 -2.6018 0.1534
H -0.8201 -2.2632 -0.3593
H -0.5054 0.2727 1.8185
H -2.5651 1.7039 0.7520
H 2.1469 -0.9772 0.5672
C 1.3272 -1.1671 -2.0492
C -1.5406 1.6439 0.4036
C 1.3163 -1.5820 0.1893
16

O 0.2267 1.0955 0.2003
N 2.0775 2.4638 -0.2760
C 0.1849 -0.9772 -0.6223
O 0.0969 1.5125 -2.0747
H 0.9808 -1.5098 -1.1361
N -1.6838 -0.8944 0.7325
H -1.6973 -1.1716 2.6206
H 1.5980 3.2305 0.1845
C -0.1657 0.6618 -1.1596
C 1.2061 1.4667 -0.3673
H 3.0106 2.6479 -0.6506
C -1.4572 -1.7230 1.7066
H -1.5179 -2.7437 2.0250
C -0.7549 -1.6728 0.1387
H -0.8623 -2.7424 -0.0722
H -1.2423 0.3564 -1.2493
10

N 1.2747 0.2594 1.0074
H 0.8917 -1.7872 0.8204
N -2.0458 -1.0837 -0.6120
O 0.4267 0.5306 -1.3412
N -1.6829 -0.3305 -0.0561
H 1.8160 1.0037 1.1275
C 0.3976 0.1155 -0.1336
H -1.1888 1.5439 -0.7905
C -0.8262 0.5992 -0.5734
N 0.9370 -0.8509 0.5515
17

H -2.5722 0.4265 -0.9506
H -1.1250 2.1021 1.0618
C -2.5882 0.6295 0.0765
C 1.1040 -0.4002 0.5048
H -3.5297 0.6548 0.5003
C 1.6879 -2.2679 -1.8110
C 0.7418 0.3895 -0.3552
H 2.6446 1.0409 -0.3128
H 2.4443 -2.3065 -2.4409
H 0.0688 0.6521 -1.0464
H 0.8756 -1.1673 1.1196
O 0.8493 -2.4068 -1.2935
C -1.6737 0.1459 0.8417
H 1.9610 1.2589 1.2543
C 1.9135 0.7782 0.3429
O -1.3859 1.2595 1.3732
H -1.4162 -0.7892 1.1353
18

O -0.5992 -2.9767 0.0168
H -0.8175 3.2758 0.9294
C 0.4634 -3.4799 -0.4278
H 0.9205 -1.1814 -0.7601
N 1.1027 -4.0718 -0.9075
C -0.5790 2.3422 0.4226
H -1.2668 2.4621 -0.4129
H -1.3204 -0.2831 1.4736
H 0.9995 0.8619 -1.8972
N -0.9119 -1.7519 0.3015
C 0.0957 0.6492 -1.3708
H 1.7135 -0.2041 0.4754
H 0.4997 2.1344 2.1312
H -0.7852 0.5802 -1.9788
C 0.7726 -0.4378 -0.0125
C -0.0646 0.8706 0.0813
N 0.3760 1.6906 1.2643
C -0.5990 -0.4802 0.6714
17

H -1.1747 2.0959 -1.0630
C 1.8743 -0.5369 0.3957
H -0.1789 2.5354 0.3575
H -2.1296 -0.3769 -1.1505
H 2.3099 -1.4898 0.6891
C -0.1928 -1.7526 0.2141
H -2.2250 0.0371 0.6157
H 0.0126 -0.1365 1.5640
N -2.0607 0.1580 -0.3356
C 0.4265 -0.6975 0.7505
H 2.3591 0.3085 0.8946
H 0.7466 1.9765 -0.9519
H 0.4554 -2.3363 -0.4040
H -1.1844 -2.1452 0.1953
C -0.1966 1.9301 -0.5072
O -1.0075 0.8924 -0.6017
H 2.1659 -0.4621 -0.6625
19

C 0.0159 1.0568 1.5407
H -2.1489 0.4275 -1.5839
H -0.1785 1.8324 -1.7717
H -0.6008 1.9353 1.5415
N 0.1924 1.4190 -0.9646
H 2.0598 0.9983 -0.6165
N -1.6501 0.1018 -0.8425
H -0.3627 -0.2675 3.0280
C -0.2752 0.2766 -0.3420
N -0.7853 -1.9791 -1.6601
C -0.5924 -0.0414 2.0058
C -0.8167 -0.9458 -0.9160
H 1.3177 -1.8168 -0.6580
O 2.2732 -1.4571 0.9825
H -0.9658 -1.4612 -2.5507
H 1.0427 1.3779 1.6206
C 1.1869 0.3471 -0.4828
H -1.2851 -0.7576 1.5940
C 1.5727 -1.0461 0.0756
16

H -1.4511 1.7324 -0.4049
C -0.4144 0.0647 -1.0039
H -0.3765 1.2916 2.1378
C 0.8230 0.7586 0.1343
C -0.0603 1.6860 1.1919
C -0.8033 -2.3692 -0.8508
O -0.4224 -2.5339 -2.0811
N -0.8442 -0.2021 -2.2278
C -0.5115 -1.2651 -1.6189
C 1.2738 -0.2644 1.0641
H 1.6670 1.1445 -0.4294
H 2.0461 0.1208 1.6910
O -1.3496 -2.8435 0.0383
H 0.0055 2.7569 1.3170
H 0.9856 -1.2630 1.1745
C -0.5679 1.1857 -0.1320
21

N 0.6079 -1.0748 -1.2515
H 0.1405 -1.6504 1.0124
H 2.1166 0.6641 -1.0579
H 2.0041 -0.5416 0.1880
C -1.8181 0.6590 2.3692
N 1.2469 -2.2423 -1.4737
H 1.5812 -2.6247 -0.5682
H -0.6078 0.0550 -2.0301
H 0.0661 2.3520 -1.8314
H -2.2141 1.6745 2.2246
O -1.8684 -0.0660 3.3650
C -0.1344 -0.7369 1.4827
H -1.8710 -0.2055 0.4205
C 0.1012 0.3181 -1.2300
C -1.2380 -0.0407 1.2738
H 2.0658 -2.0839 -2.0626
H 0.6146 -0.3200 2.1404
H -1.5170 1.8400 -1.1928
C 1.4191 -0.0651 -0.6303
H -0.2569 2.3033 -0.1010
C -0.4383 1.7860 -1.0470
20

H 0.8704 -2.0122 -0.3452
O -1.5542 -1.1106 0.6271
H -0.9230 0.9574 1.2401
H 1.1188 -1.1110 -1.8421
C -2.4859 3.3229 -2.8608
H 2.4453 0.5690 -0.2210
C 0.3919 0.9812 -1.4858
H -2.5526 2.3571 -2.6349
C 0.3502 0.1792 -0.3859
C -0.6911 0.0737 0.7031
C 0.0012 -1.7111 2.5157
C 1.7322 -0.1199 0.1300
H -0.5831 -2.4315 3.0647
H 1.9935 -0.4660 1.0930
H -2.4244 4.1987 -3.2222
H 0.0990 -0.8061 3.1050
C -0.5979 -1.0920 1.3653
H 0.9459 -2.1518 2.2806
O 0.8419 1.4399 -2.3358
C 1.0219 -1.0667 -0.7908
19

C -0.0907 -1.0769 0.8449
C -0.2057 1.2940 1.5446
C -0.9947 -0.8659 -1.3663
H 1.0777 2.0529 -0.4207
C 1.1761 -0.7930 0.7078
H 1.5699 2.4495 1.1827
H 0.9926 -1.6822 -1.7308
H 2.1003 -1.1951 0.4112
C -1.0197 0.8051 -0.8931
H -0.6349 2.2274 1.8467
C -0.0582 -1.8860 -1.7114
N 0.8340 0.4868 1.0204
C -0.7544 -0.2278 -0.2602
C 0.9882 1.7835 0.6057
H -0.4121 -2.8296 -2.0860
H -0.6010 -1.8540 1.3437
H -1.1321 1.7869 -1.3177
H -0.8871 0.6064 2.0442
H -1.9481 -1.0820 -1.7657
15

C -2.5106 -0.2499 0.7135
O 2.2109 1.6968 -1.3396
C 1.8246 -0.5654 -1.2894
O 0.6405 -0.4983 1.0056
H -5.3974 0.7078 1.7034
H -1.6126 -0.3068 0.3286
H 2.0938 1.4422 0.4921
C 0.9724 -0.4640 -0.1702
C -3.5477 -0.0665 1.1288
H 3.2944 0.3563 -0.0763
H 1.3781 -0.4874 -2.2722
C 2.3582 0.8627 -0.4146
H 2.6039 -1.3291 -1.2894
C -4.6031 0.2761 1.4639
H 0.2947 -1.3744 0.0157
16

C -1.3280 -0.3193 0.2929
H 0.2976 -0.8904 -1.3516
N 1.2433 0.8858 -0.2622
C -1.7664 0.8868 0.8637
H -1.3312 -2.1588 -0.3231
H 3.6067 0.7498 -0.8293
N -1.8819 -1.3366 -0.3337
H -1.7023 1.7320 0.1542
H 2.4157 -0.8361 0.6691
C 0.7093 -0.2631 -0.6360
C 1.9357 -0.2081 -0.0158
C -2.4410 -0.6370 0.8053
C 2.5522 0.8292 -0.9438
H 2.3036 1.4157 -1.7995
O -1.7992 1.2290 2.0383
H -2.8139 -1.0787 1.6715
21

H 1.1700 -1.0572 1.0060
C 0.0764 2.3690 -0.3176
H -0.8374 -3.7597 -0.7859
C 1.4943 -0.4008 0.2054
N -2.4355 2.0451 2.3589
H 0.9512 2.4629 -0.9586
H 0.2274 -0.2906 -1.6179
H -1.1085 -2.2336 -1.6272
H 0.1605 3.1098 0.4824
C -0.0176 0.9647 0.3178
H 0.3486 0.9727 1.3528
C 2.8551 -0.4459 0.1848
H 0.4638 -2.6066 -0.9045
H -1.8571 -0.1752 0.0143
H -1.0220 -2.2852 0.1490
N 3.9080 -0.6898 0.4170
H -0.7876 2.6739 -0.9243
C -1.4795 0.6548 0.5440
C -2.0284 1.3826 1.5190
C 0.5279 -0.0014 -0.6506
C -0.6095 -2.6896 -0.7647
21

C -1.1141 2.7867 0.6624
H 2.1425 -0.5096 -0.2377
C -0.7198 1.6265 0.0131
N -0.4093 2.7159 -0.6750
H 0.9395 0.2093 -1.1698
H -2.1833 2.8205 0.6280
N -0.0341 0.3408 2.0436
C -0.5143 0.6984 0.9630
H -0.7674 2.8361 -1.5677
C 0.6081 -2.7820 -1.6231
H -0.4219 -1.6097 1.2637
H -0.8953 -1.5954 -0.9617
H -0.5134 3.2745 1.3875
H 1.2569 -2.0212 1.1920
C 1.0853 -0.5976 -0.4542
H -0.9879 0.5570 -0.2515
H 0.2893 -3.7742 -1.4029
C 0.1494 -1.7042 -0.7817
H 1.0515 -2.4883 -2.5374
C 0.4771 -1.5057 0.6539
O 0.5613 0.7223 2.8554
22

H -0.1331 -2.8393 0.5193
H -1.4163 1.8509 -1.3301
H -1.5497 0.8985 0.8439
C 0.2888 -1.9471 0.9764
H 1.8817 -2.2630 -1.1914
C -0.5772 -0.8730 1.7373
H 1.7567 -0.2888 0.3524
H -0.3284 2.9605 -2.1455
C -0.3618 -0.8246 -0.4660
C 0.4318 2.4609 -0.2622
H -1.3297 3.4931 -0.6826
C 0.9547 -1.6639 -1.2392
H -1.2567 -1.5326 2.2836
H 1.0603 -2.3625 1.6297
H -0.0170 -0.3376 2.5224
C -0.7085 2.6851 -1.1314
C 1.0124 -0.9764 0.0246
H 0.5639 -1.9161 -2.2139
H 1.2871 3.0545 -0.5384
H 0.6139 1.7887 0.5494
H -1.1865 -1.3666 -0.8942
C -0.9864 -0.0005 0.6559
20

H -2.7263 -1.2512 0.8935
H 1.1624 -1.9381 1.0660
O 0.8698 0.2361 -3.6693
H -0.5291 2.0451 -0.6796
H 1.1864 -2.3182 -0.6987
C -1.1315 0.1060 0.3450
C 0.5880 0.9183 1.3618
C -0.8991 0.6795 1.6502
H 0.7921 1.9091 1.7621
C 1.3121 0.7665 -0.1289
C -1.1106 -0.8998 -0.7646
C -0.0884 1.1611 -0.2594
H 1.2006 0.2102 1.9156
C 0.9697 -1.6137 0.0645
C 0.2963 -0.3703 -0.3379
H -1.3760 -1.3409 -1.6915
N -2.0503 -0.9491 0.2524
H 2.1800 1.2564 -0.5479
H 0.9315 0.2830 -2.8860
H -1.5775 1.1100 2.3527
19

H 1.5821 0.8862 1.9633
H -2.2512 0.0635 1.4659
C -0.2028 -1.2641 -1.5964
N 1.2903 0.0215 1.5589
C -1.2617 0.0847 1.0533
N -0.4067 0.1342 -1.7112
O 1.8976 0.2892 -1.9918
H -1.1960 -1.6729 -1.3282
H -0.1261 2.1393 0.7543
C 0.7564 0.7251 -2.1573
H 0.1308 -1.6463 -2.5755
H -0.4102 -0.0322 2.9519
H -1.4798 1.0751 0.1862
H 0.5849 1.6501 -2.7623
O -0.6048 -1.2004 1.1576
N -0.5799 1.3036 0.7736
H 0.4831 -1.7146 -0.8591
C -0.0727 -0.1735 1.9345
H 1.8666 -0.6684 1.1825
16

N 1.8982 0.8435 0.8699
C -1.7127 0.5861 -1.6707
H 0.4353 -2.6792 -1.1849
C 0.9752 -1.2494 -0.0342
H 0.3047 0.7223 2.0755
C -0.2422 -0.6731 -0.0633
N -1.5271 -0.6376 0.3991
H 0.3211 2.1204 0.9659
N 1.0481 -2.4151 -0.4546
H 2.7296 1.3303 0.9198
O 1.9349 -0.4896 0.5735
C -1.0371 0.0655 -0.6708
H -1.4536 -0.0467 -2.4655
H -2.4174 1.3374 -1.5967
C 0.7557 1.2643 1.3266
H -2.0128 -0.0787 1.0103
17

C 1.1707 -0.9635 0.7745
H 3.2207 -0.9021 0.2221
C -2.1536 0.9884 -0.8303
N 0.1547 1.3505 -1.1217
N 0.4792 -0.3108 1.6784
H -2.7469 0.2272 -0.3347
N -0.7192 0.3939 -1.0877
H -2.4959 1.0709 -1.8560
C -0.9548 1.3500 -0.0682
H 2.3948 -2.5046 0.0649
H 0.0768 2.0791 -1.7795
H -0.6951 1.6125 0.8963
C -0.0635 -1.1256 0.8421
H 2.7694 -1.8551 1.5942
H -2.1436 2.0668 -0.4253
H -0.7791 -1.8945 0.8141
C 2.4856 -1.5830 0.6168
18

H 0.9840 -3.5429 0.3707
N 0.7791 -3.1800 1.3169
H 0.5779 1.7390 1.0092
H 0.7221 -0.4382 2.1964
C 0.3453 1.0809 -1.0715
H -0.8050 2.2928 -2.2377
N 0.6138 -1.1483 0.0900
H 1.3056 1.6385 -1.0627
H -2.1087 1.7218 -1.5697
H 0.6517 -3.2333 2.3197
N 0.2100 -2.0366 0.9167
C -0.1812 1.3693 0.3416
C -1.0626 1.3957 -1.6847
O -0.7611 0.2377 1.0467
H 0.7662 0.2989 -1.7438
H -0.9735 2.0906 0.4405
C 0.2772 -0.6642 1.2481
H -1.3408 0.3781 -1.9264
18

H -1.7181 2.2059 -0.0489
C 0.6242 -1.4021 -1.5626
H 1.2033 0.7957 1.7168
H 1.5222 -1.9365 -1.5982
C 0.9857 0.2453 0.8344
H -1.9703 -0.5480 -0.5904
H -3.0679 1.2652 0.4168
N -0.2786 -0.5906 0.8921
H -1.6958 1.4182 1.5528
H 0.0242 1.2874 -0.7223
O 3.1176 -1.1424 1.3550
H -0.2695 -1.9216 -1.4021
C -0.1736 0.4824 -0.0378
O 2.0536 0.0344 -0.1015
C 2.5209 -0.9562 0.5064
C -1.9918 1.3213 0.5216
H 0.6388 -0.4270 -1.9418
N -1.5252 -0.1317 0.2098
21

H -2.1250 0.2029 1.1109
C 0.1171 -0.0692 -1.8643
H -0.8821 0.2324 -2.0719
C 0.7028 -1.4181 -2.2153
H 0.7959 0.7423 -2.0690
C -1.4202 1.9972 1.9625
C 0.1694 -1.0824 -0.8098
C -0.3185 -0.1056 2.4646
C 2.1216 -1.5987 -2.0529
H 0.8615 -0.9923 0.0012
H 0.2628 -1.9614 -3.0316
H -0.7562 -1.4671 -0.4275
H 0.0499 -1.0759 2.2747
H -0.6330 0.0016 3.4587
H 0.6388 1.3062 0.8496
C -1.3584 0.6924 1.6118
H 2.5769 -1.8901 -1.1444
H -1.8256 4.0902 1.5932
H 2.7283 -1.5711 -2.9014
C -1.6442 3.1334 1.7983
C -0.0620 0.8334 1.4626
16

C 1.4696 0.3288 -1.5835
N 1.6382 0.9282 -2.6822
H 1.9519 -0.6463 -1.5110
H -0.9932 -1.1616 2.2796
O 0.7326 0.7049 -0.5499
N -1.1504 -1.7058 0.2541
C -1.6709 -0.4053 -0.0335
O -0.3518 1.1517 2.5612
H -1.6188 -0.2416 -1.1414
H 1.7287 0.4511 1.3315
H 1.6661 1.9441 -2.7644
C -1.0445 -0.7242 1.2719
C 0.7713 0.6199 0.8420
N -0.3371 0.6192 1.4966
H -0.2032 -1.9810 -0.0460
H -2.5885 0.1177 0.2752
17

C 0.0499 -2.1080 0.8385
C 0.4933 1.0334 -1.4977
C -0.0276 0.1813 -0.3608
N -0.0502 -0.2884 -1.5935
H -0.8454 -2.4321 -0.9666
N -0.8654 -0.0359 0.6624
O -1.1618 -1.5372 0.9976
O 0.9178 0.8526 1.9232
O -0.0314 2.2531 -1.2387
H 0.7994 -2.3535 1.5428
H -0.6436 1.8687 1.3217
N -0.7502 -2.4292 -0.0013
H -0.7394 2.5148 -0.6865
H 0.1960 -0.8193 -2.3923
H 1.4597 1.0803 2.6177
C -0.0657 1.0029 1.0567
H 1.2647 1.2165 -2.2231
21

H 0.6577 2.8860 0.7620
H 0.8361 -0.2274 -2.5015
H 1.1556 -2.0469 -0.6647
C 0.2112 -1.5551 -0.4355
C 1.4742 0.5356 0.0644
H -0.8259 3.6326 0.7389
H -0.5229 -2.2502 -0.7646
H -2.5286 -1.3951 0.4620
H 2.3348 0.4186 -0.5510
H -0.2320 -2.8780 1.5625
H -0.8152 -1.2110 1.7538
C 0.4020 -0.1371 -0.4056
H -0.8099 1.8674 0.4810
H 1.4655 1.0640 0.9827
C -0.3184 2.7935 0.2914
H -0.3128 2.9190 -0.7859
C 0.0866 -0.3143 -1.7161
H -0.8069 0.2209 -2.0777
C -0.0445 -1.8485 1.3584
O -2.3231 -0.9160 -0.2697
H 0.9165 -1.5579 1.7153
21

H 1.3438 -0.5319 2.0068
C 0.6694 0.1102 1.3997
C -0.1585 -0.0265 0.0746
H -0.8064 -1.7537 -2.6979
O -2.3096 -2.2425 -1.4912
C -0.7873 -0.2731 -1.2504
H 1.7369 -0.9914 -0.4593
H 0.6633 1.0828 1.9586
H 2.8709 0.9751 -1.1096
H -0.5694 0.5575 -1.9359
C -1.3756 -1.4859 -1.7805
H 2.6155 1.6018 0.4725
H -2.8673 -0.9577 1.6412
O 1.2040 2.2453 -0.8231
C -2.1249 -0.3101 1.1811
H -0.5927 -1.6859 1.6969
C 1.3102 -0.0768 -0.0431
H 0.3331 2.5342 -0.5506
H -2.4728 0.6680 0.8032
C -0.7444 -0.6673 1.3080
C 2.0622 1.2279 -0.4011
21

H -1.5008 0.7527 2.3837
H -2.0765 -0.2626 0.0177
C 0.5192 0.1169 -0.7881
C 1.8222 0.1575 -0.0936
C -0.5542 -2.7989 0.4897
H 0.8457 2.1355 -1.3608
H -0.9583 1.8362 -1.3309
C -0.0271 0.9566 0.3949
H 0.3103 2.7821 0.9333
C -0.9600 0.8945 1.4773
H 0.3155 -1.3101 1.5949
N -0.9529 -3.8644 0.4110
H 2.5411 -0.2444 -0.7826
N -0.4947 2.2659 1.2462
C -0.3484 -1.4775 0.7654
C -1.0915 -0.2507 0.4662
H -0.7293 -0.9861 -2.1621
H 0.9262 -1.7141 -1.8456
C 0.0231 1.5406 -0.9999
C 0.2284 -0.9341 -1.7189
H 2.1621 0.4046 0.9023
25

H -1.7354 -1.3304 -1.1791
C -0.6053 -0.0369 0.3536
H -2.9013 -0.0911 0.7609
H -1.4104 1.8728 -0.2300
C 1.4164 -0.1886 0.7970
H 1.9643 -1.7446 -1.9208
C 0.6187 -0.5873 -0.4281
H 2.4671 -0.2905 0.6444
H 0.6644 3.0909 -0.2627
H 1.7019 1.7763 -0.2321
C -0.6196 1.4959 0.4137
H 1.1572 -2.5173 0.5603
N 0.7365 -2.1078 -0.2574
O -1.0608 -1.0155 1.1267
H 1.2461 0.0718 1.8161
H 0.4263 -1.1722 -2.5463
C 0.6889 2.0644 0.0178
C -2.0211 -0.3522 0.2227
H 0.5188 -2.7724 -2.0847
H 0.7513 0.2332 -1.1761
H -0.7599 2.9133 2.0716
H -0.9387 1.1278 2.5139
C -0.8392 1.9058 1.8053
O -2.3399 -0.5644 -1.0873
C 0.8739 -1.7809 -1.6993
23

O -1.4305 2.5527 -0.3756
H 0.4594 1.4332 1.3698
H 2.0288 -1.0110 2.0504
C 0.3560 0.3986 1.0839
H -1.9603 -0.1757 -0.8537
C 1.5477 -2.0914 -0.1852
C -0.4057 2.6213 -1.2202
H -0.2862 3.3862 -1.9579
H 0.5385 2.4110 -0.7413
H 0.9993 -3.0176 -0.0236
C -1.2825 0.3979 -1.3964
O 0.8872 0.2738 -0.1811
C 0.9806 -0.8401 0.4083
N -1.5308 1.7422 -1.5229
H -1.9923 2.0950 -2.3661
O -2.0491 -1.3611 1.8270
H -0.5519 -0.0136 -2.0333
C 2.1561 -1.3709 1.0327
H 2.1070 -2.2289 -1.0955
H 3.2067 -1.5480 0.9153
O -0.8801 -1.2836 1.5035
N -0.4802 -0.1982 1.9975
H -2.4178 -2.1718 1.7642
17

O -0.7631 -2.0683 -2.3903
H -1.0965 -1.5820 0.1755
O 0.6426 -0.7003 -3.2992
C 0.6427 0.2993 0.0205
N 0.0513 -2.5730 -1.3920
C 0.1442 0.1733 -1.2528
C -0.7035 1.0223 1.8480
C 0.1216 -0.9040 -2.2467
H -0.1790 1.1416 -1.5991
H -0.9659 1.5741 2.7401
H -1.3725 1.4064 1.0967
C 0.7987 1.0850 1.2736
C -0.6284 -1.9590 -0.6801
O 1.7267 0.0407 0.4589
H 1.4567 0.9173 2.1236
H -0.8456 -0.0140 2.0736
H 0.9699 2.1405 1.0499
21

H -2.9720 -1.8168 -2.8515
H 2.1819 -0.0915 0.7674
C 1.6135 0.8136 0.9164
C 0.2307 -0.9793 -1.4914
O -0.5016 1.5994 1.7795
C -0.3195 -0.6685 -0.3715
C 0.3332 0.5072 1.6775
H 1.7711 2.7716 1.6136
H 0.5720 -0.0028 2.5866
N -2.0131 -1.3604 -1.0214
C 0.2281 -1.2020 -2.6674
H -1.3921 1.5920 1.6595
H -2.3375 -0.8247 0.8706
N -0.3581 -0.3324 0.8294
H -0.4479 -1.9119 -3.0317
H 0.8325 -0.6145 -3.2864
N 2.1629 1.8778 1.7586
C -2.4928 -1.5258 -2.0058
H 1.4306 1.2004 -0.0692
H 3.0426 1.7958 2.1632
C -1.5644 -0.8273 0.1740
15

C 0.9923 -1.2215 -0.4278
H 2.0056 -1.1762 -0.8847
C -0.9905 0.2724 -1.2629
C 0.9490 0.7129 0.7318
O -2.5533 1.7472 0.3700
H 0.6137 1.2658 1.6110
H 0.5456 -2.2230 -0.5426
C 0.6676 -0.7655 1.0389
H 1.8177 1.2852 0.4282
H -1.8502 -0.3440 -0.9788
N -2.5109 1.8573 -0.6042
C 0.1945 0.0059 -0.4306
H 1.4003 -1.1558 1.7501
H -0.3301 -0.9767 1.4516
H -0.9510 0.7161 -2.2499
20

H -2.2583 -0.1766 1.1163
H 0.1102 -0.2737 2.0350
H 1.5376 -1.7295 -1.4627
C 0.6216 -0.0340 1.1592
C -0.9980 -1.5518 0.3078
C -2.0786 -0.7824 0.1966
H 1.7536 1.1520 -1.5222
C 0.7879 1.4340 -1.1195
H 1.4433 2.6800 0.8322
O 1.2554 -2.0799 -0.5813
C -0.0509 -1.9726 -0.6861
H -0.3710 2.7654 1.0432
C 0.4621 2.4054 0.4103
N 0.2209 2.7351 -1.0093
O -0.3220 0.5013 -1.0790
H -2.6377 -0.9795 -0.7333
H -0.8359 -2.0891 1.2283
H 1.6440 -0.2896 1.1197
C 0.2389 0.8774 0.1576
H -0.5232 -2.5918 -1.4129
21

H 0.3406 -1.1639 1.7271
H 2.6465 -1.0243 1.7399
C -0.8719 -0.5032 -1.1999
H 0.1133 2.4650 -1.2750
C 2.0624 -0.6345 0.9423
O 1.5202 1.0291 -1.4023
O -0.8676 2.9918 1.7614
C -1.0739 0.0528 0.2169
C 0.5897 1.5711 -0.8289
H -1.2851 -2.2512 0.1444
H 1.0898 -2.2329 0.2808
O 0.0002 -0.7684 -2.3085
C 0.7602 -1.2824 0.7244
C -0.3892 2.1525 1.1896
H 2.4320 0.3071 0.5939
C -0.1303 1.1775 0.3562
H -1.7885 -0.1872 -1.6766
H 0.6086 -1.4700 -2.0062
O -2.3523 0.2229 0.7711
H -2.7209 0.9140 0.2197
C -0.6838 -1.3657 0.0296
17

C -0.5771 -0.4003 0.5956
H -2.0766 -0.0555 -3.0266
H 0.2084 1.8705 -1.2550
C 1.0046 -0.4060 0.5314
C -1.0192 -0.8409 -0.7263
O -1.5315 0.7274 -2.7806
C -0.9695 0.0985 -1.7079
H -0.0301 -1.7153 2.3635
C 0.1756 -1.1855 1.4713
H 1.8174 1.8166 1.3068
H -1.2987 -1.7731 -1.0930
C 1.3980 0.8491 1.4927
C -0.3661 1.1037 -1.6307
O 2.2765 -0.1134 1.1952
H 0.9968 0.9129 2.4863
H 1.3404 -1.0831 -0.2615
H -1.3488 0.1944 1.0387
19

C 0.5503 0.0297 -0.8754
H -2.2168 0.1733 -0.8258
O -0.4611 -1.0018 1.3182
H -0.8023 2.2936 0.8486
H -2.9363 -1.2987 -0.0965
H -0.1731 -1.9154 -0.5640
C -0.2973 1.8145 0.0500
H 2.6728 0.4907 -1.2076
H 0.3423 0.2441 -1.8985
H -0.5803 2.2078 -0.8850
H 1.5701 1.6133 0.7749
C 2.0138 -0.0084 -0.5245
N 0.7837 -1.1616 1.4000
H 0.9913 -2.1167 1.5787
C -2.4739 -0.3788 -0.0057
C 0.0817 -1.0850 0.0726
C 0.9492 1.0384 0.1070
H -2.3859 0.0449 0.9422
H 2.3716 -0.9839 -0.2092
20

C -0.0788 0.4070 0.1935
H 0.0533 0.7661 -2.3821
H -0.2058 2.5114 1.5043
H -0.7037 -0.4648 -1.5764
N -0.4679 -0.5190 1.1823
H -1.5689 2.1877 -1.1572
H 0.9188 -2.2082 -1.0312
C 1.0049 -2.0492 0.0339
H -0.7838 -0.3864 2.1121
H -2.8693 0.7279 0.9172
C -1.4239 1.9587 -0.1711
H 2.3063 -0.4097 -1.1142
C 0.1717 0.2044 -1.4165
H 1.8103 -0.2717 1.0282
C 0.8778 -0.6288 0.6225
H 1.9386 -2.4755 0.3686
N 1.5245 0.1606 -1.3744
C -2.0272 1.3434 0.8119
C -0.6475 1.7183 0.9531
H 0.1708 -2.5722 0.4955
21

H 1.6042 -2.4496 -0.9242
C 0.3139 -0.2004 -1.8750
H 0.9050 -1.8997 0.5788
H -2.3231 -1.8271 -0.7974
C -1.5802 -1.0927 -0.6462
H 1.3596 -0.1179 -2.0637
H -0.3296 0.3470 -2.5046
C 1.3516 1.9421 2.1955
C -0.7731 -0.0845 0.1018
H 2.3490 1.5776 2.1899
C -1.8540 0.3159 -0.7241
H -1.2214 0.6092 1.9864
C 0.5747 1.7085 1.0346
C 0.6828 -2.1796 -0.4393
N -0.1567 -1.1996 -1.0896
H 1.0387 2.7062 2.8462
H 0.4250 2.6468 0.5262
N -0.4731 0.6352 1.2991
H -2.4943 0.9888 -1.2219
N 0.5122 0.6188 0.2135
H 0.0889 -3.0450 -0.6861
14

C 0.6233 -0.0653 -0.3092
H -1.8370 -2.0419 -0.6323
O 0.7152 1.0846 2.6490
N 0.5810 1.1562 0.0950
H 1.0456 -0.8127 -0.9621
N 0.6008 1.7325 1.9055
H -1.9313 -1.4372 -2.0787
C -1.8687 -1.0093 -1.0582
H 2.5431 1.0912 1.0420
C 1.8761 0.6925 0.2837
C -0.8754 -0.3497 -0.1523
H 2.6435 0.4951 -0.4345
O -1.4333 -0.2463 0.8447
H -2.6830 -0.2898 -1.1927
17

C -1.1754 0.2192 -0.5866
C 0.2420 -0.1968 -0.2000
N -0.5816 0.7595 1.8532
C 1.3367 0.2437 -1.2017
H 2.2017 -0.4235 -1.2240
H -2.1032 0.2753 -0.0174
C -0.6086 -0.5167 2.1146
C 0.5034 0.2309 1.2503
H 0.2843 -1.3061 -0.0637
H -1.6392 -0.9249 2.1377
H 1.5777 1.2765 -0.9331
H 0.1378 -0.1654 -2.6682
H -1.0307 1.2451 -0.9695
O 0.9063 0.3769 -2.5613
H -0.0490 -1.0482 2.8744
H -1.5290 -0.4662 -1.3669
H 1.5268 0.4208 1.5624
12

C -0.5751 1.2001 1.1229
H 0.6990 -1.5654 -1.1306
C -1.7605 -1.4486 0.0414
H -2.1393 1.2612 -0.1496
C 0.5649 -0.6654 -0.5696
N 1.5224 0.1016 -0.4922
C -0.7912 -0.4787 -0.1139
O -0.2663 1.9502 1.7809
N 3.8377 0.7153 -0.2925
N -2.5540 -2.2640 0.0070
C -1.3082 0.7723 0.1715
C 2.7706 0.4213 -0.3753
17

C 0.5277 0.4177 1.2907
O -0.6805 -0.7310 -2.3525
H -2.3289 -1.1173 0.6830
C 0.3005 -0.6009 -1.2426
C 0.0186 -0.0191 0.0241
C -2.2310 -0.4243 -0.1516
H 2.1744 -0.8451 1.3956
H 2.0802 1.4915 -0.0303
H -0.0978 -0.3637 -3.0521
N 1.9142 0.0844 1.5646
C -0.9473 -0.6830 -0.7984
H 1.2110 -1.1355 -1.3707
H -2.2138 0.5760 0.2391
H -3.0162 -0.5909 -0.8811
C 1.6391 1.3126 0.9239
H 1.6458 2.1879 1.5449
H 0.0040 0.4407 2.2135
20

C -0.5652 -0.0436 -0.5071
C -1.8155 0.1361 1.6523
H -0.1779 2.2185 1.6773
C -0.8692 -0.4175 0.8407
H -1.2459 -0.5912 -1.1286
H 0.6137 -2.2408 -1.3453
H 1.6109 1.3081 -0.1087
C 1.0030 -1.3114 -1.5803
C 2.0701 -0.7820 -2.2974
H 2.4381 -0.8198 -0.1153
C -0.9911 -1.1754 1.8676
H -1.2798 1.9081 -1.2283
H 2.6812 -0.3695 -2.9901
N -0.6169 -2.1624 2.3913
C 1.9161 -0.8648 -0.9813
H -1.7813 0.6209 2.5763
H -2.6558 0.4242 1.0833
C 0.5983 1.0094 -0.0706
C -0.2214 1.7289 0.7775
C -0.7114 1.4242 -0.5133
18

H 0.4854 1.5839 1.6119
H 1.6253 0.1091 0.2142
O -1.6997 -0.7510 0.8937
H -1.4974 0.3801 -2.9159
H 1.1466 0.2619 3.8195
H -1.4201 -1.2241 -2.1771
O -0.6133 -0.6364 3.4416
C 0.3760 0.0205 3.0658
C -1.0368 -0.2186 -2.1529
C -0.8278 -0.2250 0.3126
C 0.4535 0.5228 1.7731
H 0.7734 0.8040 -2.7347
C 0.6195 -0.2819 0.4212
C 0.4217 -0.0265 -2.1224
H -0.5133 1.4533 -0.8112
H 1.1531 -0.8110 -2.1717
H 0.8378 -1.3636 0.4217
C -0.2841 0.4024 -0.8893
19

H 2.6889 -2.0763 0.4385
H -1.1082 -0.3966 -1.4492
C 0.5781 -1.6984 0.7519
C -1.3318 0.4243 -0.7582
H -2.2570 0.0668 -0.3230
H -0.9031 2.4949 -1.7223
C -1.6823 1.7958 -1.3770
N -0.1975 0.6009 0.1812
H -0.4398 1.3361 0.8081
H 1.5142 -2.3368 2.5735
H -0.3951 -1.8875 0.4677
C 1.1782 -1.5231 1.9762
H -2.4292 1.6232 -2.1625
H 1.0215 0.9460 -1.3439
C 0.9455 0.4079 -0.4286
H 0.9970 -0.5830 2.4519
C 1.8700 -1.4179 0.5936
O 2.0698 -0.1626 -0.1144
H -2.1191 2.3863 -0.5638
21

H 1.5892 -1.4892 0.2540
C 1.4862 1.7704 -0.6193
C -0.4627 -0.1932 0.3846
O 0.3969 0.4715 1.3475
H 2.1125 1.5591 -1.4204
H -2.6599 0.2828 -0.1442
O -1.9759 -0.4895 2.3844
C -1.6521 0.5898 -0.1990
H 1.6795 -0.9334 -1.4651
C -0.8975 -0.3235 -1.1022
O -1.6393 -2.1442 0.9025
H 0.5966 -0.1433 2.0588
H -1.5763 1.6443 -0.0449
H 2.5253 -0.1619 -0.0341
N -0.5437 -1.6354 0.5632
H 1.9206 1.8796 0.3266
H -1.5443 -1.1085 -1.4287
C -1.3829 -0.8674 1.4330
H 0.5328 2.1094 -0.7984
C 1.8325 -0.8033 -0.4539
H -0.3376 -0.0138 -1.9444
19

C 0.6290 -0.1712 -0.4411
C -0.3767 0.3930 0.2910
N -0.3394 -0.8758 0.3951
C -0.4530 -2.1031 0.7898
C 2.1657 2.0191 -0.9102
H -2.5786 -1.1688 0.2563
O 0.3415 0.0597 -1.8479
H 0.1289 0.9752 -1.9791
H -2.2109 -0.5694 1.9285
H -0.9346 -2.9475 1.1431
H -0.9910 1.1871 0.5683
H 2.7168 1.5270 -0.1312
O 1.2438 2.8805 -0.8771
H 2.4560 1.6962 -1.8812
H -2.8494 -2.2469 1.6496
H 1.2165 3.7935 -0.5914
C -2.2881 -1.4085 1.2590
H 0.5253 -2.5037 0.5788
H 1.5983 -0.5365 -0.2004
17

H -1.0396 -0.0305 -2.3691
H -2.6024 0.0564 0.2477
C 0.8864 0.8351 0.1981
C -1.0337 -1.0934 -0.6634
H -1.0272 0.8083 2.2433
H 2.4126 -0.3034 -0.8361
C 0.4039 -1.5049 -0.4544
H -1.6482 -1.7383 -1.1812
C 0.0149 -0.1448 -0.3092
O -1.0035 0.2747 1.4619
C 1.4429 1.4815 1.2061
O -0.9738 0.7449 -2.1482
C 1.4521 -0.2673 -0.4947
C -1.5442 -0.1196 0.3302
H 1.0074 2.3317 1.6837
H 2.3362 1.0611 1.5767
H 0.9161 -2.3915 -0.4914
23

C -0.8424 -1.6445 1.5225
H -0.2274 0.4637 1.7467
H 0.5711 2.5268 -0.2879
H 1.5612 -0.8435 0.4482
H 0.7161 -1.4803 -1.0830
C 1.2082 0.9145 -1.7106
H 1.3767 1.1787 0.3688
H -0.4032 1.1489 -0.2744
O 2.4361 0.1966 -1.8058
C -1.9197 -0.8262 0.7989
H -2.6995 -0.6058 2.8225
C -2.4416 -0.0491 1.9450
H -2.3171 -1.1143 -0.1200
C 0.8207 -1.3765 -0.0611
O 0.0976 -2.2157 0.6263
H 0.4309 0.3223 -2.2092
H 2.5911 -0.5032 -2.4289
H -0.8061 -2.1969 2.4134
H 1.6766 1.9451 -3.2636
H -3.0255 0.8044 1.6883
O 1.5685 2.0911 -2.3311
C 0.6224 1.4536 -0.3730
C -0.9945 -0.1898 1.5679
14

H 1.0517 1.4867 -2.2391
C 0.3011 -0.8169 -0.5350
C -0.2548 -0.4541 0.7382
H -1.2474 -0.7024 1.0266
O -1.7579 0.2009 -1.3573
H 0.9965 -1.4426 -1.0382
C -1.5698 1.1234 -0.5824
H -2.1365 1.9385 -0.3239
H 1.7455 -0.2884 2.5451
O 1.2751 -1.8254 1.5882
C 1.0182 -0.6732 1.8101
H 0.9203 0.9630 -2.6581
C -0.5308 0.2135 -0.6483
H 0.1887 0.2771 1.6741
19

N 0.8583 1.9958 0.3422
H -0.6024 -2.9144 -0.3625
N -0.1079 1.7957 -0.6244
C 1.7335 -0.8932 0.5087
H 2.6069 -0.5795 1.0051
N -0.2844 -0.4769 -1.1051
H 1.7705 1.7902 0.3585
H -0.2075 -0.2509 -2.0489
O -2.1679 0.5435 0.4605
C -0.3045 2.2348 0.5606
H -0.8209 1.8755 -1.2749
H -0.8136 2.8459 1.2096
C 0.3437 -0.7798 0.0480
H -2.6413 1.3024 0.4649
N 1.3795 -2.1873 0.3602
C 0.1540 -2.2585 -0.1097
H 2.0167 -2.7118 -0.2346
C -1.1438 -0.2719 0.0291
H -1.7689 -1.0597 0.4128
18

C -1.9627 -0.9884 0.0387
H 0.6015 1.4265 0.6763
H -2.2466 1.3933 -0.2566
C 1.2718 -0.5662 1.2919
C -0.7884 -0.2177 -0.3161
H 0.7999 -1.1872 2.0614
H -2.6355 -1.0198 -0.8293
O -0.6977 2.1048 -1.2519
C 0.5723 -0.8565 -0.0391
H 2.1781 -0.1871 1.8087
H 1.6957 1.6216 -1.3809
C -1.2634 1.1770 -0.6820
H -1.8279 -2.0487 0.2752
C 1.9894 0.7710 -0.8086
H 2.9180 0.3148 -1.0607
H -2.5342 -0.6151 0.9102
C 1.0151 0.5302 0.2337
H 0.9147 -1.6525 -0.6710
18

C 0.7978 -0.4000 -0.2154
C -1.6154 -0.5664 -1.6149
C 1.3668 -0.0148 1.2377
C -0.8017 -0.6893 -0.3425
H -2.6435 -0.7685 -1.3396
O 0.7869 0.6042 -1.4118
H -0.8264 1.4875 -0.0140
H 1.3684 -1.2958 -0.4494
H 1.3312 1.7759 2.0347
C -0.2211 0.6728 -0.3391
N -0.5543 -0.5425 2.8721
H 0.7315 1.6037 -1.3491
H 2.2137 -0.6559 1.5416
H -1.6009 0.3631 -2.1835
N 1.7352 1.2850 1.2474
C 0.3042 -0.2381 2.2422
H -1.1836 -1.3415 0.4042
H -1.1889 -1.2795 -2.3207
17

O 0.5396 -1.3085 1.3700
N -1.2447 0.0615 -0.0132
H 2.4475 -1.4503 0.4598
C -1.6136 1.3987 -0.2612
C 1.5405 -0.8779 0.4484
H -0.4810 -2.3465 0.1222
H -2.2583 -0.3110 1.6140
C 1.5134 0.6644 -0.6872
O 0.8834 1.5285 -1.2302
C 0.4316 -1.7980 0.0680
N -1.9246 0.3075 0.9053
H -2.5407 1.9632 -0.3793
N 1.6566 0.4552 0.6478
H -0.9662 2.1438 0.2494
H -1.3349 1.4306 -1.3439
H 0.9007 -2.3140 -0.7597
H 2.4507 0.4525 -1.2103
15

H -0.2025 -3.0618 0.4279
C -0.7235 3.8623 -0.0695
C -1.3223 1.3440 -0.2195
N 0.6438 -1.0785 0.6516
C -0.4091 -1.0871 -0.0734
H 0.6024 -2.4639 -1.0961
N 1.8467 -1.6763 0.9097
H 2.0352 -2.6188 0.9589
H -0.5099 4.8087 -0.1656
O -1.3616 -1.7262 -0.6869
C -0.0373 -2.2961 -0.2769
H -0.0086 2.9009 -0.3313
N -2.0608 1.5384 -0.7364
C -1.0448 2.5760 -0.1957
H 2.5523 -1.0217 0.9033
19

H 0.5030 -2.0039 -1.2146
H -0.6041 -2.8997 -0.1848
C 0.4012 -2.5194 -0.2688
H 0.7288 -1.8374 0.5066
H 1.0037 -3.4082 -0.1617
C 2.7285 1.9178 1.6267
H -1.0810 1.3948 -1.6273
H -1.5802 -0.8025 0.4845
C -0.8690 1.0006 -0.6209
H 3.5443 1.7413 2.4246
C -2.7944 -0.2449 -1.2546
H 2.6131 0.9148 1.0921
H -3.2352 0.3453 -2.0517
H -3.4252 -1.0918 -1.0596
H 3.1466 2.8078 1.0364
H -1.1571 1.7891 0.0921
O 1.5573 2.2249 2.0966
H 0.2014 0.8746 -0.5125
C -1.6816 -0.2032 -0.4031
19

H 0.9516 -1.9564 1.6048
H 2.1995 0.5412 -0.5980
H -2.2115 -2.1213 0.5514
N -2.3733 -1.1567 0.7886
C 1.7147 1.9917 -1.9101
H 0.2334 1.9486 0.8725
H -1.2598 -1.4229 -1.3649
C -0.1213 -0.2654 0.5683
H -1.2655 0.9694 -1.3791
H 1.3627 -0.2115 2.1242
C 0.8345 -0.9002 1.5173
C 1.3673 1.1762 -0.8969
H -1.6435 0.4585 1.9466
O 2.1188 2.6242 -2.7364
C 0.3028 1.1657 0.1499
H 0.3361 -1.8552 -0.8420
C -0.5781 0.4000 -0.7971
C -0.4117 -1.0830 -0.7783
C -1.5566 -0.3028 1.1792
18

H 1.2963 1.6063 0.0665
H 1.0224 -0.9437 -1.9407
H -0.7155 1.3694 1.5685
H 1.1375 -2.2434 0.1395
N -3.2420 1.4423 -2.0171
H -0.3961 -1.5799 -0.3533
C 0.5225 -0.4005 1.2720
C 1.4704 -0.3663 -1.0850
H -0.0672 -1.0781 1.9446
C -0.5785 0.6483 0.7334
H 1.8347 0.4453 -1.7776
H 1.2373 0.0096 2.0403
C -2.0219 0.7509 0.1333
H -2.7050 0.5688 0.9526
C 0.6261 -1.2946 -0.0898
H 2.4837 -0.6465 -0.7020
C 0.8076 0.6233 0.1123
C -2.7124 1.0890 -0.9975
23

H -1.8771 -1.8238 -1.0211
H -0.1321 0.5875 -2.4694
C 0.7810 1.1938 0.2170
C -1.4658 0.3424 2.1104
H -1.4059 0.4517 3.2022
H -2.4617 -0.0888 1.8772
C 0.8214 0.3385 -2.0155
C -1.3223 0.1362 -0.5943
H -1.6163 1.0741 -0.9177
C 0.8097 -0.1268 0.9110
H -0.0048 1.9036 0.3860
H 1.6208 1.8941 0.2412
H 0.4271 -1.9576 -0.9992
H 1.5447 0.9705 -2.5392
C 0.8911 -1.1285 -1.5397
H 1.6714 -0.3972 1.4981
C -0.3723 -0.5713 1.7355
H 1.6123 -1.6411 -2.1533
H -1.4591 1.3619 1.6961
C -1.5501 -0.9287 -0.6112
C 1.2980 -0.0184 -0.5969
H -0.2043 -1.5635 2.1564
H 2.3945 -0.0084 -0.5736
23

H -0.9831 1.0664 -4.4536
C -1.1294 0.8893 -3.4031
N 0.8232 -1.0210 0.8129
C 0.7006 0.2896 0.3070
H 1.9787 0.7238 2.3427
C -2.1340 -0.1125 -3.0307
H -1.0160 1.0307 -0.7284
H -0.8930 -0.1715 1.8501
H 0.6851 -1.3366 -1.7648
H -2.8454 -0.2244 -3.8348
C 1.2477 0.0739 2.7256
H 1.4643 -1.7862 0.9047
C -0.0413 -0.5336 -1.8005
H 2.1320 0.0655 4.7361
H -2.5456 -0.2523 -2.0455
C 0.1631 -0.1497 1.6572
C 1.2646 -0.0689 4.1632
H 1.3462 -0.9527 3.2435
C -0.2700 0.2672 -0.7889
H -1.0826 1.7623 -2.7777
H 0.3866 -0.1007 4.7155
H 1.5065 0.9903 0.1986
O -0.7582 -0.4489 -3.0288
18

C 0.1515 -1.1327 -0.4925
H 0.2870 -2.1102 -0.0667
H -0.0013 1.7717 -2.5893
C 0.8267 -0.1728 0.2590
C -0.5107 0.0834 0.3602
C 0.8268 1.9065 -1.8761
H -1.1129 -2.3827 2.0740
H -2.7719 -1.9194 1.5045
H 1.4480 2.7230 -2.2177
O -1.6659 0.5060 2.4176
H 0.2223 -1.2068 -1.5581
C -1.3731 -0.3295 1.5970
H 0.4058 2.2927 -0.9576
C -1.7492 -1.6383 1.6485
H 1.4324 1.0154 -1.8768
H -0.8986 1.0268 0.0480
H 2.5223 -0.5568 1.0145
O 1.9609 0.1237 0.7115
25

C -2.2146 1.0157 0.3854
C -0.2258 -0.1591 -0.7130
H -2.8574 0.1347 0.5228
C -0.8467 0.5479 0.4081
H 2.7041 -0.0889 -1.8533
C 2.4268 -0.5960 -0.9125
H 3.2585 -1.3038 -0.7437
H -0.7012 -0.0138 2.6630
H -1.0272 -0.7157 -1.2457
H -2.4195 1.8224 1.1044
N -0.6362 1.4674 -1.3679
H -0.0906 1.3354 -2.1753
C -2.1138 1.5999 -1.0386
C 0.9954 -1.1790 -1.0922
H 0.9211 -2.1229 -0.5550
H 0.8138 -1.3884 -2.1362
C 0.2282 -0.4953 2.3414
H -2.4969 0.9935 -1.8751
H 0.8852 -0.1279 3.1346
C 0.1496 -0.2478 0.8114
H 0.1241 -1.5856 2.5305
O 2.3568 0.3328 0.1311
H -2.8504 2.4313 -1.0020
H 2.1626 -1.2119 1.4594
C 1.4542 -0.4452 1.2186
19

H 0.6796 3.0711 -1.1324
C 0.3556 -1.9432 1.7781
H 1.9341 -0.5680 0.7631
H -0.1024 -1.0603 -1.3279
N -0.1160 2.4431 -2.4592
H 1.0782 1.3473 -0.9214
H -0.1319 1.8087 -3.2318
C -0.2382 0.0017 0.6103
N -0.7187 1.0771 1.0131
C 0.5334 2.0707 -1.3911
H 1.0270 -2.7850 1.8359
H -1.2613 -3.0323 1.2260
H -0.9210 1.8179 1.6442
C 0.9302 -0.8553 0.8331
H -1.7532 -1.9135 0.1774
C -0.8395 -2.1132 0.7669
H 0.0826 -1.5942 2.7716
H -0.4820 3.3568 -2.6787
C -0.0566 -1.1295 -0.2771
18

H -1.4322 1.5535 1.6713
O 1.3032 -2.0462 -0.6902
C 0.2642 -1.2743 -0.4577
O 0.3786 0.5771 -1.9369
C -0.6422 1.8731 -0.2521
C -0.0510 -0.8885 1.9366
H -0.0119 2.7622 -0.2765
H 1.3519 0.8873 -0.1826
C -0.0528 -0.4112 0.5228
H -1.3597 1.8280 -1.0639
C 0.3343 0.6045 -0.4878
O -1.5046 1.7869 0.7806
H 0.7088 -1.6435 2.0294
C 0.2820 -1.9607 -1.6101
H 1.1796 0.1058 -2.1802
H -1.0092 -1.3457 2.1468
H 0.1293 -2.3382 -2.5535
H 0.1314 -0.0700 2.6040
17

H 0.3072 -1.4525 -2.0744
H -0.7331 -1.0592 1.6145
H -2.3861 1.7785 -1.4367
C 1.1752 0.1360 1.3151
C 0.3359 -1.0609 1.5207
H 1.7024 -1.3559 -0.2097
H -0.7859 2.4186 -0.5792
H 2.2299 0.1975 1.5140
O -2.4215 1.1800 -0.4900
H -1.1946 -1.3207 -1.0425
C 0.1145 0.3723 -0.8362
C -1.2649 1.4714 -0.7604
H 0.8450 0.9942 -1.3648
H 0.6965 1.0320 1.6928
H 0.6969 -1.6927 2.3254
C -0.1925 -0.9281 -1.2628
C 0.8752 -0.7103 0.0741
16

H -1.2629 -2.0023 -1.8310
H 1.3210 2.8303 -0.5728
H -1.2125 -2.3301 0.9419
O 0.5574 -0.7573 1.9526
H -0.7050 0.5031 1.1481
C 0.0396 -1.6459 -0.7047
C -1.2115 -1.2657 -1.0894
C 1.1790 1.1048 0.6367
H -0.0751 2.7220 0.5203
C -0.8164 -1.8621 0.1538
C 0.3105 0.1929 1.2600
H 2.2295 1.0123 0.7702
H 0.0073 1.7016 -0.9273
H -1.8520 -0.4657 -1.0096
H 0.9280 -1.9106 -1.0862
C 0.5633 2.1728 -0.1631
23

C -1.0699 -0.0865 1.0445
H -2.0158 1.7245 1.2353
H -0.1580 1.6435 1.5074
H 1.6398 -0.0402 2.9154
C -1.0299 1.3969 0.9140
H 0.0447 -1.2838 -1.8614
H -0.5647 -0.3367 2.9120
C 1.5396 -0.2005 -2.8253
H 2.3041 -0.3558 -2.0817
H -0.2792 -1.8665 2.1795
C 1.6649 -0.6948 2.0463
H -0.8386 2.0465 0.0626
C 0.0221 -0.2007 -1.8987
H -1.7826 1.2570 -1.6609
O 0.5348 0.6325 -2.9341
H 1.7869 -0.5997 -3.7920
C -0.1719 -0.8024 1.9837
C -1.3065 0.3324 -1.4002
H -2.0649 -0.3902 -1.1854
O 0.0390 0.5584 -0.8911
H 2.6378 -1.1863 1.9627
H -1.8595 -0.7505 0.7626
O 0.9278 -0.7969 1.0048
15

C 0.8386 0.8403 -0.0791
N -0.0546 -1.2117 -1.2450
H 0.9483 1.8727 0.2968
H 1.8386 0.3765 0.0361
C 0.6674 -0.7281 -2.0967
O -2.7790 0.9528 0.3822
H -0.9390 -1.0728 2.1741
H -0.7029 0.9033 -1.8151
C -0.3963 0.1948 0.4544
H 0.6388 -1.4409 1.4064
C -0.1161 0.2993 -1.1584
H 0.3896 0.0746 2.4379
N 1.4406 -1.0383 -2.9891
C -0.0412 -0.6372 1.7136
C -1.7328 0.6147 0.4819
17

H -0.6983 2.2356 -1.0342
H -0.6881 0.7200 -2.7669
C 0.4919 1.5484 0.8259
N -0.2945 1.4814 -0.5798
C 0.0444 0.3498 -0.0021
C -0.5004 -0.1369 -1.2718
H 1.4234 1.1105 1.2466
C -0.9573 -0.8574 -0.0826
N -0.7401 -0.2731 -2.5246
H 0.9753 2.4996 0.6436
N 0.7925 -1.6132 1.1479
H -1.9961 -1.1173 0.0875
H 0.3723 -2.6498 -0.6550
C 0.1547 -1.8342 0.0190
H -0.2691 1.5998 1.6378
H 0.1533 -1.7304 1.9545
H 1.7360 -1.3327 1.3544
17

H -0.6865 -1.3611 1.5880
H -1.7650 1.2584 -0.7627
H 3.5695 -0.8002 0.2921
O 2.1439 -0.2602 -0.8940
C -0.1662 0.4250 0.7108
C -0.7964 -0.8931 0.6354
C -0.7897 1.3530 -0.3319
O -2.0043 -1.0614 -0.0366
H -0.2376 2.2126 -0.6791
H 2.1172 -0.4204 1.2178
O -0.2126 -0.5740 -1.8001
C 2.5358 -0.4728 0.2101
O -0.6968 -0.7962 -2.7117
H -1.9358 -1.9358 -0.4038
C -0.5029 1.5221 1.2703
H -0.3613 1.9519 2.2281
C -0.2112 -0.1478 -0.5326
17

N -0.8172 0.7718 -0.9210
H 1.0973 1.9243 -0.5977
H -1.9011 2.0330 0.5931
C 0.2201 -0.1761 -0.0179
C -1.2594 1.1073 0.6074
H 0.5471 0.8564 1.8841
O 0.9948 2.1798 0.3294
H 0.6075 -0.7937 -1.9611
C 0.1969 -1.7085 0.1422
H -1.0067 1.5752 -1.5045
O -1.8331 0.0980 1.1809
N 0.1845 -0.1014 -1.3699
O 1.5318 -1.9455 0.5242
H -0.1177 -2.4603 -0.5793
H 1.8635 -2.6342 -0.0972
H -0.5772 -1.8140 0.9296
C 0.2689 1.0880 0.8578
14

H -2.0721 -1.8922 0.8948
H 1.9706 -1.2284 -0.8573
H -1.4334 -0.9603 2.3637
N -0.1899 -0.8669 0.5290
N -1.2005 -0.0955 0.3624
H 0.6116 0.8348 1.4614
N -0.7879 3.0746 -0.1262
C -1.3797 -1.1546 1.3012
O 0.4858 0.3152 -1.8299
C 1.5211 -0.5152 -1.5205
C -0.4738 2.0371 0.1489
C 0.0894 0.6370 0.5008
N 1.0028 0.5980 -0.7030
H 1.8560 -0.7838 -2.5254
15

H -1.0399 -1.6884 -1.5372
O 1.6731 0.2082 -1.2453
H -1.4050 1.0842 -0.4644
C -0.8412 -1.1027 -0.6456
H 2.9057 1.0887 -0.0165
O -1.9784 -0.6891 1.5196
C 0.5853 0.1299 0.6743
H 2.3514 0.7038 1.1076
N 0.3205 -0.2831 -0.9495
H 0.3961 0.0610 1.7480
C -1.8930 -1.1009 0.3235
C -0.3399 0.8994 -0.2691
H -2.7086 -1.7662 -0.0335
C 1.8922 0.5398 0.0747
H 0.0817 1.9153 -0.2866
15

O 1.7309 -1.1630 -0.6476
N -0.3684 -1.3190 -0.2406
C -0.3863 0.1162 0.1570
O -2.5832 -0.1964 1.2118
H -1.1160 -1.9235 -0.6252
H 1.1408 -1.5933 1.3677
H 1.8109 1.0181 0.7365
H -2.2286 1.4316 0.0921
C -1.8747 0.4732 0.5417
N 1.2357 -0.5037 -1.7049
C 0.7850 -1.1977 0.4217
C 0.5510 0.5508 -1.0351
H 0.3091 1.9078 1.0648
H 0.2428 1.2991 -1.7960
C 0.7509 1.0998 0.4561
14

H 0.3900 1.3733 0.4867
H -0.3326 0.5116 -2.7016
N 0.2279 -1.1280 0.3692
C -1.6326 0.4055 -1.0806
H -2.3273 0.3787 -1.9239
N -0.3533 0.3922 -1.6974
N 0.3904 -0.4069 -0.8616
O -2.2025 0.5095 -0.0401
H 2.2090 -0.7311 0.0705
C 0.3188 -0.5010 1.7452
H -0.4236 -1.1020 2.3026
O 2.1092 0.1502 0.4118
C 0.5630 0.2871 0.4238
H 1.0634 -0.1391 2.4954
17

O 1.6881 1.8979 0.0460
O 1.4349 -0.1079 0.7793
C -0.6608 -2.7056 0.0941
H -0.2275 2.3140 -0.7632
H 0.2854 1.5736 2.0801
H -0.6011 -3.4523 0.8001
H -0.5807 -0.8742 -2.5123
C 0.3976 1.7077 -0.0822
C -0.0181 -0.7242 -1.5867
C -1.0031 -0.4640 -0.3746
H 0.9405 -0.2447 -1.7723
C -0.3246 1.4045 1.2168
C -0.3464 -1.7055 -0.5439
H 2.2973 -0.1596 1.1059
C 0.1452 0.2376 0.3754
H -2.0486 -0.3178 -0.1268
H -1.3779 1.6203 1.2643
18

H 2.0562 2.1200 0.4438
H 1.3516 -0.1219 1.7138
H 0.6359 -1.7419 1.8490
N -0.4940 -0.8392 -2.4579
O 1.6640 1.9347 -0.3939
H -1.9411 -1.1228 1.7145
C 0.0383 0.3073 -1.6361
H -0.6865 1.0566 -1.5530
C -0.7005 -0.1475 1.0200
O -0.8851 -1.6916 -3.0573
H -2.1462 0.9736 1.4527
C 0.6074 -0.7896 1.3727
H 2.1224 0.4047 -0.6507
O -1.4955 0.9171 0.7704
C 1.1568 0.8239 -0.8832
N -0.1365 -0.9704 0.2574
H 0.6059 -0.2464 -2.5322
O -1.7530 -0.8666 2.5702
21

H 2.0451 0.8730 -2.4701
C -0.4490 0.4509 0.5825
H 0.2755 2.6107 0.6327
H -1.6571 0.3501 -1.0819
C -1.7735 0.1556 0.0029
N -0.2379 -1.6326 1.3955
H 1.7798 -0.7418 -0.4279
H 0.5360 -0.9190 -1.7713
H -2.8074 0.4080 0.2049
H -1.9068 -0.6575 2.1000
H 2.0453 1.4959 -0.8392
C 1.4448 0.9838 -1.5822
N 0.4390 0.6242 1.7678
C 0.2483 1.5813 0.8316
C -0.0996 -2.1232 0.2366
H -0.2078 0.8615 2.4957
H -0.8783 -2.2423 -0.5150
C 1.1314 -0.3054 -1.1507
C -1.2579 -0.5950 1.2690
H 0.6386 1.6772 -1.8289
H 0.6915 -2.8555 0.1480
17

C 0.9569 0.5898 -0.0470
C -2.2186 0.5527 -0.4522
C -0.1744 -0.3471 0.5211
H 0.6082 1.3740 -0.6816
H -3.0133 0.0159 -0.8598
C -0.0251 -1.6760 -0.2248
H -1.3222 1.2823 1.3755
C -0.9621 -1.9569 -0.9788
O 0.9430 -2.4604 -0.1647
C -1.2855 0.7502 0.4687
H 2.3646 0.8729 1.5364
O -1.6357 1.6459 -0.6843
C 2.3282 0.9353 0.4650
H -0.0399 -0.5704 1.5498
H 3.1572 1.4662 0.0337
H -1.7056 -2.3023 -1.5904
O 2.0245 -0.1721 -0.2669
21

H -1.1170 1.7621 1.3616
C 0.6349 0.4499 0.9148
C 0.0903 0.0787 -0.5429
C 1.0264 -0.9251 1.8116
O -0.6896 -1.2547 -2.3938
H -1.1122 -0.2752 2.0910
H 0.2255 2.6019 0.4264
C 0.2272 -1.2371 -1.2536
H -2.0621 -0.3169 -0.0132
H 1.1634 -1.8572 1.3018
H -0.1129 -2.1090 -0.7277
O 0.7829 0.9733 -1.3769
H 0.6702 1.0450 -2.2957
C -1.3729 0.3056 -0.5084
H -1.6746 1.1886 -0.9910
H -0.8189 -0.3429 -2.6212
C -0.1437 1.7666 0.9442
H 1.2608 -1.3960 -1.5163
O -0.1922 -0.3954 1.8173
H 1.5524 -0.8336 2.7317
H 1.6624 0.7714 0.8400
18

O -0.9786 1.4554 1.2697
H -0.1445 -0.3507 1.8253
H -2.2389 -0.8873 -1.3721
C -1.4371 0.4552 0.2255
H -0.8969 0.8228 -1.9667
H 1.1832 1.7519 -0.0915
N 2.4722 -1.2989 0.7427
O -0.5183 -0.0186 -1.8431
C -1.3444 -0.6428 -0.8428
C 0.9706 0.7825 0.2165
C -0.1865 0.2786 0.9778
H -1.0634 -1.5404 -0.3057
C 1.3855 -0.3814 0.3733
H 2.0109 -1.6417 1.5408
C 2.1272 -0.9294 -0.4903
H 2.3487 -1.0311 -1.4927
H -2.4244 0.8134 0.0951
H -1.2651 2.3625 1.1382
14

H 0.9955 2.1821 -0.4973
C -0.8752 0.7528 -0.3949
O 0.0309 -2.2563 1.0128
O 1.0404 -0.1817 -1.8060
C 0.5899 0.2237 -0.6975
H -1.5809 1.5362 -0.6571
C 1.3340 -0.2081 0.5725
H 2.2937 0.1639 0.6614
N 0.6704 -1.3762 0.9226
H -1.5958 -1.1474 -0.9840
O 0.5919 -0.1849 1.6849
N 0.2963 1.5506 -0.2784
C -1.6176 -0.4398 -0.2102
H -2.1737 -0.6148 0.6711
18

H 0.0646 2.0192 0.7371
C 0.4218 1.0299 0.4543
C 0.3099 1.0267 -1.1180
H -0.8349 -2.3549 2.0740
H 0.5065 0.2319 2.5195
H -1.6570 0.0387 -1.7600
O -0.0574 -2.3535 1.4695
C -0.7054 0.4566 -2.0482
H -0.8721 -1.1546 -0.0056
N 0.4884 -0.2033 -1.8214
H 0.5939 1.9806 -1.5027
C -0.1287 0.1788 1.6345
O 1.0787 -1.5157 0.6293
H -0.8520 1.0495 -2.9403
H 1.4009 -0.5696 -1.7098
H -1.1307 0.3079 2.0323
C -0.1332 -1.1379 0.7823
H 1.5066 0.9694 0.5732
14

H 0.1142 -1.7530 1.4036
O 0.6308 -0.8142 -0.5879
C -0.7432 -0.6878 -0.5228
O 2.4654 -0.1115 -1.3537
H -2.0102 0.9755 -0.4753
C -0.0595 -0.7592 1.7626
H -1.1139 -1.3781 -1.2310
H -0.7487 1.2059 1.7176
C 1.3463 0.2084 -1.0583
N -1.3249 0.3856 -0.0619
H 1.0419 1.7462 -2.2197
H 0.2534 -0.6974 2.7789
C -0.7053 0.2687 1.1754
O 0.8536 1.4109 -1.3275
21

C 0.6135 -1.3660 -1.5182
H 1.1243 -1.5729 0.8031
H -2.6168 -0.1553 0.8599
C -1.4729 -1.1349 -0.6462
H 2.3242 -1.5743 -0.4390
H -0.4752 -3.0837 -0.8940
H -2.1653 -0.8865 -1.4299
C 0.8432 1.4420 0.1683
N 0.1867 1.7647 1.0863
H -2.4361 -1.9698 1.0021
C 0.8368 2.8702 0.1963
H 1.9488 3.0356 0.3799
H 0.0249 3.0339 -0.5831
H 1.3311 0.7152 -0.3530
O -0.9075 -0.8075 1.6282
C -0.2942 -2.0092 -0.7728
C 1.2226 -1.5907 -0.2738
C -1.8826 -1.0149 0.7774
H 0.8598 -1.2725 -2.5453
H 0.7071 3.8978 0.5042
H 0.2276 1.6790 2.0495
25

H -0.4518 1.3581 -1.5825
N 1.2869 0.2286 -1.8371
O 0.2413 2.2801 0.7032
C 0.3933 1.0179 0.5596
H 0.5230 -1.5889 2.1146
H -0.5666 -0.3947 2.4359
C -2.1289 -0.4941 0.5464
C 2.2153 0.8284 -1.0233
H -0.7268 2.3867 0.5152
O -0.6719 -0.5537 -2.3060
H -2.2626 -1.4750 0.1350
O -2.4851 -0.4995 1.8064
H -1.4964 -0.7276 -1.8458
H -2.5277 0.2852 -0.0717
H 0.7619 -2.2078 -0.0134
H 2.2259 1.8735 -0.7833
C 0.0384 -0.7442 1.6098
H 3.1076 0.3497 -0.6811
C -0.0738 0.3460 -1.3543
H 1.6339 0.3722 -2.7816
C -0.3259 -0.1671 0.1462
H 2.0762 -0.2498 1.2115
H -3.2190 -0.3328 2.3161
C 1.1464 -0.3790 0.6149
O 1.2863 -1.5121 -0.4346
18

H -0.6144 2.4183 0.5040
H 2.5754 -0.1899 1.1243
N -1.0774 1.5641 0.2769
H 1.7611 0.4465 2.4391
H -0.9417 -1.6879 -0.3694
H -3.1562 0.0935 0.5049
H 1.3445 -2.5317 -1.4820
N -2.0266 -0.1021 -1.1961
H 1.5916 1.5840 1.3025
C 1.0659 0.3225 -0.2114
H 1.4620 1.0675 -0.9031
C 1.7745 0.5152 1.3296
C -1.1944 -0.6568 -0.2819
N -2.5636 -0.4873 -0.0211
H -2.4829 0.3500 -1.9111
O 1.3005 -1.0072 -0.5620
C -0.3723 0.5184 0.0441
O 1.5540 -2.2171 -0.5872
17

H -1.8903 -0.9122 1.6901
C -0.9855 1.1995 0.3061
O -0.9713 0.5905 -0.9576
C -1.2844 -1.2888 0.8546
N -0.3755 -2.2102 1.2733
C 0.9229 0.2147 0.0746
H 2.3325 1.8040 -0.1223
H -2.0203 -1.4750 0.0452
H 0.9392 2.0307 -1.1958
H -0.5202 1.8926 0.9614
C 1.4972 1.3297 -0.6159
H -2.0076 1.4538 0.0561
H 1.3845 -0.3070 -2.0694
C -0.4494 -0.1559 0.2128
O 2.6177 -0.9744 -0.5664
C 1.7340 -0.1529 -1.0357
H -0.9234 -3.0389 1.0888
20

N 2.2338 -0.8596 -3.9036
C 0.4701 1.6529 2.4590
H -0.2517 -1.6629 -1.9962
H 0.4714 0.9400 3.2848
H -1.5811 0.9505 1.6923
H -0.5514 -1.3940 1.3509
C -1.0071 -0.9251 -1.9931
C -2.0170 -0.0473 -1.2767
O 0.2506 2.0430 1.1682
H 2.0169 -1.1296 -3.1772
C -0.5382 0.9127 1.4429
H 1.8287 -1.6434 1.0127
O -0.3099 0.5786 0.0123
C -0.0333 -0.5179 0.9668
H 2.0852 0.0111 0.4651
C -0.9606 -0.2169 -0.7927
H -1.4020 -0.9226 -2.9553
H -2.9698 0.3634 -1.3790
C 1.3586 -0.7185 0.7671
H 0.9069 2.5855 2.8514
19

H 0.2251 -0.8887 1.4500
C -0.6651 -0.6222 -0.2672
H -1.6222 -1.0039 -0.1380
N -0.0513 -0.1910 -1.3901
H -3.0174 1.0073 0.3917
H 1.8689 -1.8244 -0.7932
O -2.7166 2.4209 1.5966
H 0.6135 -3.0341 -0.5407
N -0.2040 0.7207 -0.3659
C 1.1853 -2.2400 -0.0564
H 0.6446 2.8134 -0.3535
H 2.0845 0.8194 -0.3578
C -0.9988 1.5087 0.3392
O 2.1385 0.6794 0.5067
N 0.3253 -1.2990 0.5686
C -2.2810 1.6628 0.8550
H 0.6436 0.1118 -2.0075
H 1.7957 -2.6626 0.7468
C 0.0315 2.0215 -0.1842
14

C 0.0000 0.5177 0.6318
H 1.6926 0.9758 1.5696
H -0.1282 1.5372 0.3099
H 1.2575 0.5820 -2.2160
H -0.6361 -1.9877 1.0716
C 0.3455 -0.2680 -0.5972
H -0.5322 0.9937 -1.9468
O 1.0674 0.3195 1.5279
H -1.7867 0.4279 1.8657
H 0.9226 -1.1272 -0.4574
C -1.1284 -0.2067 1.3252
H 0.0235 -0.5418 -2.6255
N -1.3665 -1.4609 1.4511
C 0.2690 0.2384 -1.9099
16

O 0.0889 -0.7662 -2.9191
H -0.1071 2.4394 2.2822
O -0.9110 0.8019 1.5201
H 0.0877 0.9682 3.3569
H 0.5481 -1.5919 -2.8714
H -1.9168 0.8621 -1.8982
H 0.0273 -1.9222 1.4250
O -1.5777 0.0459 -1.5871
F 2.2998 -0.7421 0.0910
C -0.2247 -0.0763 -1.7843
N -0.0691 -1.6053 0.5141
C 1.0332 -0.6808 0.3681
C 0.0907 -0.6464 -0.4502
N -0.0557 1.4093 2.4223
O 0.3740 0.6338 1.4486
H 0.3122 0.8707 -1.9181
18

N -1.2596 -0.6019 -1.1935
H -0.8864 -0.3968 -3.1258
C 0.8934 -0.1148 2.7078
C 1.0121 1.2988 -0.2318
C -1.2382 -0.9146 0.1883
C 1.0745 -0.1231 0.3939
C -0.4881 -0.0870 -2.2008
H 0.3685 0.5347 -2.3285
H -2.0178 -0.6585 0.8870
H 2.0177 1.4548 -0.6144
H 0.6731 0.2279 3.6587
H -0.6835 1.0962 1.0973
C -0.1274 0.5309 0.4000
H -0.8187 -1.8752 0.4468
O 1.3994 -0.5748 1.8170
H 0.5019 2.2363 -0.4982
H -2.0851 -1.2492 -1.1842
H 1.6641 -0.7836 -0.2195
19

C -0.8898 -0.4764 -0.4797
C 1.0824 -1.6960 0.8369
H -0.7314 2.0202 -1.0637
C 0.4142 -0.5855 1.3388
H -2.5049 0.4407 0.8149
H 0.1757 2.8544 0.1333
C 1.3311 -1.2341 -0.7170
C -1.5759 0.9695 0.9640
H 1.1213 1.6319 -0.6313
H -1.6644 1.8501 1.5610
H -0.0216 -0.0925 -2.4089
H 2.3920 -1.0168 -0.7570
C -0.2730 0.5182 0.4632
H 0.2265 -0.4337 2.3898
O 0.7005 -1.9718 -1.6365
C 0.0834 1.8622 -0.3163
O 1.5111 -2.7037 1.3169
H -1.5568 -1.2932 -0.3223
C 0.1796 -0.6434 -1.4860
19

C 0.5133 -1.8854 -1.5059
C 1.3864 -1.8862 -0.4989
C -0.2007 0.3299 0.4043
C 0.9239 0.8625 -0.3092
O -0.2342 -0.9170 -2.0219
O -0.6554 -0.8931 0.6100
H 0.2328 -2.7965 -1.9674
C -0.5149 1.5915 -0.0812
H 1.9776 -1.2407 0.1039
H -2.1652 1.8913 1.6058
H -0.4604 -1.1979 1.4924
H -0.5872 1.0353 2.1977
N -0.9339 1.2918 1.2854
H 1.5733 -2.9062 -0.2937
H -0.9480 -0.3788 -1.7774
O -2.0817 2.7801 1.9995
H 1.2555 0.7268 -1.2874
H 1.7168 1.0354 0.3901
H -0.7979 2.5572 -0.3461
21

O 1.4835 -0.5833 -0.7308
C 0.1313 0.3425 -2.3684
C 0.4994 -0.9456 1.3170
C 0.0985 -0.5854 -1.1595
H -0.7733 0.1979 -2.9653
C -0.2371 -2.0258 -1.2692
C 0.2214 1.3414 1.8789
H -0.7835 1.8905 -0.0938
C -1.2256 0.9519 0.2460
H 0.2094 1.3755 -2.0560
N -0.4972 -3.1111 -1.1934
H -2.1889 1.0920 0.7034
H 1.1902 1.6879 1.5911
H -0.4226 2.0206 2.3824
H 1.9238 -1.4011 -0.5099
C -0.2386 0.1782 1.0074
H 0.9776 0.1064 -3.0011
N -1.1864 -0.1531 -0.5947
H 0.8766 -1.8896 1.1636
H -0.1410 -0.3862 3.3095
C 0.0825 -0.1037 2.3427
18

H 0.7736 1.8518 -2.1586
C 1.4662 0.3500 1.9396
H -1.4541 -1.8112 -0.2988
C -1.0400 -1.2118 -1.2228
C -0.6718 -0.8200 0.2597
O -0.8059 0.9534 -1.2918
C -0.9775 0.1409 1.3409
C -0.2335 -0.1053 -1.8354
H -1.4792 -1.7118 -2.0781
C 0.3951 -0.5641 1.2692
O 2.4723 0.3543 1.2665
H 1.4966 0.8149 2.9503
H 0.9036 -1.5089 1.5336
C 0.5758 1.1268 -1.3838
H -0.9154 0.7171 2.2758
H 0.0961 -0.3778 -2.8248
H 1.3451 1.2914 -0.6554
H -1.9469 0.5103 0.9139
23

H -0.6059 1.0573 -1.8992
H 1.5115 -2.4060 0.4506
H -2.6718 0.1566 -0.7112
C -1.9941 -0.3777 -0.0233
C 1.3607 1.6394 -1.3201
H -1.5491 -0.6530 1.9828
H 2.5095 -0.5723 -1.1638
C 0.7667 -0.2194 0.0674
C 0.2513 0.6675 -1.3084
H 0.4829 -1.6069 1.6795
H 1.0750 0.6123 0.7454
H -1.5128 1.2122 0.8880
O -0.5887 -0.4015 -0.3817
H -2.9677 0.3486 1.7470
H 2.2138 -1.1964 1.4249
H 1.4054 -0.6149 -2.4347
C -1.8868 0.2671 1.4214
H 0.9411 2.6214 -1.5635
H 2.4503 1.6566 -1.3849
H -2.4273 -1.3845 -0.0560
H -1.4822 0.8967 2.2908
C 1.2514 -1.4376 0.9283
C 1.4670 -0.2655 -1.3792
21

H 1.6198 -1.8259 -1.6193
C -0.1280 0.9045 1.9240
H -2.0871 0.1799 2.4352
H -0.6315 1.0933 -2.0324
C -1.0661 -0.5782 -0.9331
C 0.3882 -0.4743 -0.5935
C 1.4326 -0.7517 -1.7046
H -2.6781 0.1261 -0.0296
H 2.3764 -0.2141 -1.6032
C 0.3385 0.3710 0.5770
N -1.7459 -0.0874 0.3480
H -1.4873 -1.5364 -1.2731
H 0.2746 1.1684 2.8954
H 1.0186 -0.5685 -2.6950
O 0.4858 2.8775 0.5203
H 2.1870 -0.5501 1.0444
O -1.2350 0.3294 -2.0422
H 0.7621 -1.6424 1.4564
C 1.1381 -0.8215 0.8251
C -1.3943 0.2095 1.5970
C 0.4319 1.7910 0.9031
14

C -0.6329 -0.1788 -0.2100
H -1.5634 -2.1525 -0.4356
C 1.5458 0.6761 -0.5572
H -1.8617 1.0170 1.0071
H -2.0858 -1.1094 0.6710
H -0.8985 2.0331 -0.1150
O 0.3963 -1.4309 -1.8381
N 2.3568 1.4725 -1.0316
H 2.0751 -0.6414 0.9799
H 1.0767 0.7973 1.5793
C -1.1344 1.0475 0.2259
C 0.4093 -0.4791 -1.1098
N -1.2443 -1.3430 0.0791
C 1.5609 0.2917 0.7550
17

H 1.6170 -2.1178 -1.9974
H 1.6111 0.8858 -0.5941
H 0.5245 0.8082 1.4634
H 2.3787 -1.7998 0.6183
O 0.4940 -2.4961 0.9518
C -0.6276 1.9588 -0.0242
H -0.0779 -1.9808 1.5030
O 0.4146 -1.1150 -0.7108
N 0.6897 1.3373 -0.6525
C 1.3731 -1.7563 0.2772
C 1.3402 -1.6649 -1.1151
H -2.4713 1.3066 0.9951
C 0.2200 1.1315 0.5088
H -0.6794 3.0208 -0.0326
H -2.6032 1.5832 -0.8084
C -2.0571 1.0429 -0.0074
O -2.1465 -0.1446 -0.3751
18

H 0.9653 2.1705 -1.7830
H 1.8423 0.2665 1.9573
H -0.1895 -0.4484 2.6764
C 0.9976 1.2411 -1.1634
N -1.3967 -0.8657 -1.1811
H -1.1385 -2.4146 0.1106
O 1.6223 -1.0275 0.3153
C -0.6589 -0.0978 -0.3794
H 2.0491 0.9292 -1.4246
C 1.0734 -0.2440 1.3522
H -2.2910 1.0640 0.6595
H -1.2013 2.1683 -1.0719
H 0.0436 -2.2319 -1.2198
N -1.3671 0.8236 0.5310
N 0.1104 -1.0578 1.9205
C -0.6809 1.3448 -0.6390
C 0.8306 0.0901 -0.1372
C -0.6109 -1.7104 -0.5235
17

N 1.5015 1.0885 0.3817
C 0.5337 -0.9158 -1.6209
N -1.4856 -0.2503 1.5082
H -0.1842 1.6899 -0.7714
C 0.2012 0.8866 -0.1257
H -3.1034 -0.8661 0.6783
H 0.7249 1.6672 2.2530
H 1.5169 -0.4405 -1.7530
C 0.3228 -0.7294 -0.1527
H 0.6404 -1.5648 0.4827
H 0.5743 -1.9596 -1.9242
C -0.8018 -0.0314 0.4877
H -1.9418 -1.5076 -0.5049
C 1.4615 1.7353 1.4567
H 2.2929 2.4273 1.5385
C -2.0753 -0.8402 0.3393
H -0.1780 -0.3891 -2.2732
19

H 0.8227 2.7290 -1.5953
H 1.5345 -1.1327 1.5105
C 0.1066 -1.7106 -0.7753
H 0.5721 2.5809 0.0629
H -1.9238 -1.0224 1.1975
H 0.4810 -2.6029 -0.2386
C 0.1058 -0.4936 0.0798
H -0.4834 1.7471 -1.8593
H 1.4470 0.4837 -1.1255
H -0.9235 -1.8986 -1.1291
H -1.6018 0.6807 0.8341
C -1.1162 -0.2786 1.0773
C 0.4293 -1.1078 1.5266
C 0.0991 2.1571 -0.9343
H 0.7358 -1.6503 -1.6889
H -0.8046 2.8164 -0.6710
H 0.1869 -1.9939 2.1379
O -0.2586 -0.0302 2.1951
N 0.5912 0.7267 -0.6045
18

C 0.2993 -2.2107 -0.0168
H 1.7170 -0.2751 -1.4495
H 0.4116 0.5567 -2.2708
H 1.7038 1.9700 0.8613
C -0.9356 -0.0434 0.0330
H -1.5015 -1.0914 1.7276
H 0.7580 -2.9345 -0.6684
C 0.6342 1.8446 0.8100
H -1.5348 0.5593 -0.6327
O -0.6282 2.5067 0.7127
H 0.4970 1.1502 1.6213
C 0.0653 -0.9364 -0.5094
H -1.3002 0.5945 2.1209
C -1.2859 -0.1263 1.3473
C 0.6725 -0.3742 -1.7726
H 0.3471 -1.0617 -2.5633
H -0.0642 -2.6099 0.9065
O 0.1447 2.4816 -0.2571
18

H -1.1246 0.4445 -1.9920
C 1.4925 0.1645 1.1384
H -1.7402 1.6704 0.3306
O -0.6539 1.7675 0.6856
C -1.7259 -0.3728 -0.0776
N 1.7070 0.1032 -1.8629
H 1.1920 0.9518 1.7824
O 1.8583 -0.9595 1.6004
H -0.2193 -2.0903 -0.6116
C 0.8169 0.3450 -1.0670
H -2.7299 -0.4870 -0.2819
H -1.4642 0.2901 1.9509
N 1.6391 0.5362 -0.1157
H 1.2985 -0.2659 -2.7039
C -0.6919 -1.1648 -0.5091
C -0.6758 0.0433 -1.1464
H 2.3689 -1.6474 1.9163
C -1.3474 0.6711 0.9636
19

H -0.4157 2.3226 1.2013
C 0.6125 -0.1224 1.3578
H -1.0765 1.2896 -1.2610
H 2.1131 -0.7965 -1.4650
O -0.0282 -0.4411 -1.9560
N 1.6040 -1.2485 -0.7509
H -0.7034 -0.5137 -2.5995
C -0.2595 -1.1731 0.7961
H -1.8204 0.2614 0.1353
H -2.0933 1.8611 -0.0834
C -0.0417 1.5023 0.5869
C 0.2360 -0.9042 -0.7043
O -0.7245 -1.8419 -0.3454
H -0.6838 -1.6507 1.6775
H 0.8378 1.9558 0.1251
H 1.8720 -2.0355 -0.2112
C -1.2829 1.1502 -0.2039
O 0.4050 0.9737 1.8498
H 1.4496 -0.5893 1.8509
13

N -0.3551 3.4492 -0.8808
H 1.7494 -0.1930 -1.1448
C -0.5007 2.2307 -0.9866
H -0.0429 -3.0564 1.1066
H -1.9202 0.7606 -0.2449
H 0.9279 0.6037 0.3856
O -1.0126 -2.5454 0.9782
C -1.1029 1.1278 -0.7043
N 0.6305 -1.0267 1.7863
C -0.1068 -1.7490 1.1229
C 0.5551 -0.5154 0.6205
N 1.3841 -0.1859 -0.3443
O -0.2061 1.0997 -1.6944
16

H 1.1882 -0.5701 1.2298
N -1.8531 -1.3525 1.4735
O -1.6870 -0.1677 -1.8630
H -0.7715 1.5695 1.2094
N 0.7077 0.1792 1.5370
O 2.8990 1.0436 -0.4304
H -1.6248 -0.9020 2.3406
H 1.8692 -0.4372 -1.8146
H -3.6671 -1.0423 0.3021
C -1.2819 -0.3765 0.5556
C -1.8373 -0.2566 -0.7108
N 2.6339 -0.0876 -1.3581
H 3.4381 1.5986 -2.4265
C 3.0791 1.0325 -1.6434
C -0.4382 0.5601 1.1581
C -2.6542 -0.7910 0.4407
21

H -1.4174 1.3106 -1.2950
H -0.9912 2.5738 0.7552
H 0.9316 -2.4386 -2.0582
C -0.5998 0.5818 -1.1833
O 0.8662 -1.1553 1.1018
H -0.3902 -2.1263 0.0210
C 1.5074 -1.6566 -1.6520
C -0.8121 1.7491 1.4570
H 1.9248 0.4886 0.2920
H 0.1939 0.9287 -1.8648
C -0.2947 0.6704 0.3405
H 1.2986 0.5782 1.9508
C 1.0717 0.2236 0.9406
N -0.4538 -1.4328 0.7357
H -0.9871 -0.3317 -1.6548
H -2.3659 -0.4119 0.4943
H 1.7350 -0.8447 -2.2807
H 2.0445 -1.7810 -0.7660
H -1.7003 1.3098 1.9335
H -0.2679 2.1678 2.3106
C -1.2933 -0.4035 0.4217
21

H -0.2061 2.3336 -2.8762
H -0.5452 2.0561 -0.9061
H -1.3979 -1.9423 3.0278
H 1.8410 0.6194 1.4543
H -0.7937 -2.9036 1.5867
C -0.7679 -2.0280 2.1774
H 2.1558 0.9248 -0.8972
C -0.7823 1.7378 -2.2439
C -0.1821 1.0116 -1.1084
C 1.1745 -0.1943 1.7268
H -0.0488 -0.6468 -2.6471
C -0.2431 0.2440 1.2378
O 1.2567 -0.9796 -0.9765
C 0.1273 -0.3401 -1.6592
H 1.8827 -0.7828 2.3285
H -1.5228 -0.6236 -0.1727
H -1.7516 1.4135 -2.4615
C -0.6247 -0.0661 -0.2265
H -0.8571 0.8484 1.9029
C 1.2702 0.3575 -1.0035
C 0.0151 -1.0396 1.7367
23

H -2.8351 2.5977 -0.4916
H 2.0783 -0.6832 1.5467
C 1.3648 0.0695 1.2747
O -2.5754 3.3623 -0.1778
H -0.3162 2.1122 -0.1865
H 2.5074 -2.0101 0.0787
C -1.0326 1.4666 0.2873
H 0.9244 0.4278 2.1891
C -0.3552 -0.4186 -1.0196
C 1.6890 -2.1049 -0.5888
O 0.8931 -2.8946 -1.0932
C 1.1509 -0.6313 -0.9096
H 1.8657 0.9362 0.8459
H -0.2408 -1.2749 0.8635
H -0.5429 -0.9469 -1.9320
H -2.4083 -0.0729 -0.0862
O -1.2318 1.6479 1.5878
C 0.3590 -0.5451 0.3343
H -2.0679 0.8015 -1.5389
H 1.6557 0.1773 -1.4271
H 1.9541 -3.2477 -0.9698
C -1.6079 0.4346 -0.6292
H -1.2283 0.7966 2.0423
23

H -1.0747 1.8555 2.0595
O -1.1706 1.5834 -0.4338
C -0.3038 1.1650 1.7250
H -2.7275 -0.3722 -2.1160
C 0.5754 -0.5471 -1.9980
H 2.0761 0.6624 2.4756
H -1.0455 1.0414 -2.9130
H -0.1806 -0.5406 3.0341
H 1.5301 -0.8260 -1.7340
C -2.0107 -1.1552 -1.8740
C -0.1614 0.5229 -2.5740
H 0.6652 1.0973 -2.9715
C -0.5185 1.3347 0.3617
O -1.2644 -1.2525 -0.6399
H 0.6687 -1.3615 0.5881
N -0.4034 -0.3199 2.0774
C -0.7116 -0.5931 -1.6991
H 2.6683 0.0695 0.9468
C 0.6910 -0.6222 1.3409
C 2.0171 -0.1805 1.7961
H 2.4425 -0.9998 2.3590
H -2.2229 -2.1776 -2.1456
H 0.4613 1.6159 2.3348
18

O 0.9541 -1.8205 -1.7434
H -2.7281 1.7661 1.8848
H 2.5722 -0.0054 -0.5576
O -0.0447 -1.3093 -1.5359
H 1.2186 -2.0588 0.9984
C 0.3996 0.6153 -0.7451
C -0.1846 -0.5815 0.1105
H 0.6743 1.4258 -1.4691
C -1.1291 0.4640 -0.5270
H 0.7606 -2.5229 -1.0215
C 1.7101 0.2206 0.0908
H -2.0869 -0.0444 -0.8080
H -1.1484 2.4084 0.3954
N -1.9177 1.0484 1.8111
C 1.1827 -1.0275 0.6565
H -0.7918 -0.9587 0.9695
C -1.4141 1.3724 0.6842
H 1.9731 1.0079 0.8064
14

N -0.2455 -0.2018 -1.6462
N 2.8443 -2.0138 2.4139
H -2.4828 1.8348 -0.2566
C 2.4067 -1.4878 1.5452
H 0.4293 0.0970 1.7116
C 0.3420 0.4719 -0.4422
N 1.7658 0.2970 -0.1851
C 0.8712 -0.0267 0.7850
C -2.2742 0.7914 -0.4523
C -0.8879 0.6093 -0.8605
H -2.3304 0.1549 0.4224
H -2.9280 0.4160 -1.2236
N 2.0316 -0.7945 0.4782
H 0.4578 -0.1477 -2.2897
16

C 0.3806 1.4241 0.1717
C -0.9438 0.0506 1.1140
C 0.1672 -1.8509 0.8180
N 0.4020 -0.5501 1.3786
H 1.4168 -0.5282 -1.5200
O 0.9851 -2.5155 0.2020
C 0.0174 0.0177 -0.0667
H -0.0400 0.2010 -2.2353
H -0.6710 -2.3719 1.3224
C -1.0870 1.2216 0.1617
O -2.0351 1.9080 -0.2074
C 0.3161 -0.4773 -1.4482
H -1.6315 -0.1904 1.9000
H 1.5269 3.0399 0.0752
N 1.3956 2.0556 -0.0234
H -0.1994 -1.4343 -1.6425
19

C 2.0725 0.4408 -0.4640
H -1.0452 -1.1545 -1.2623
H -2.0964 0.0216 1.7492
H 2.4621 -0.4447 0.0650
H -2.1641 -1.6374 1.4115
O -0.2465 -1.2853 1.4403
H 2.8843 1.1143 -0.1816
H 0.5177 0.6996 0.9121
H -1.3299 1.3437 -2.3456
C -0.5811 1.1973 -1.5883
O -0.9732 0.6528 -0.3132
C -0.3054 -0.3473 -1.2035
H 2.1320 0.7225 -1.5223
H 0.4904 -1.1650 2.0546
H -1.4276 -0.9585 2.9912
H 0.0986 2.0406 -1.5620
H 0.4193 -0.6558 -1.9723
C -1.4987 -0.8966 1.8964
C 0.5912 0.3116 -0.1054
17

H 0.4215 0.5366 -2.0489
H -0.3961 -2.1362 -1.4604
C -0.0601 1.0360 1.0332
H -1.9997 -1.1510 1.1817
H 0.1889 -1.6491 2.2670
C -0.2719 -0.4222 0.1734
C 1.1534 0.7073 -1.2868
H -0.4706 0.8817 1.9711
O -0.0543 -1.2294 2.8881
O 0.7677 0.4237 0.1399
H 0.0943 2.0653 0.8549
C -0.5292 -1.4323 -0.6808
C -1.6059 -0.9625 0.1985
H 1.9020 2.0255 -2.1563
H -2.4707 -0.7876 -0.4139
O 1.3407 2.0594 -1.3639
H 1.9901 0.0348 -1.2968
18

H 0.8174 -2.2634 2.2100
H -1.0381 -0.0611 -2.7100
H -1.9202 -1.9772 -1.8806
C -0.7144 0.4356 -1.9156
H 1.5830 -1.1637 1.1039
C -0.5555 -1.2353 -0.5755
C -0.4395 -0.2514 -0.9412
H 1.2978 -0.6796 2.7593
H 1.1973 2.1298 -0.5818
H 1.6352 2.0784 1.0969
C 0.8915 -1.2325 1.9362
H -0.6017 1.4293 -1.9816
C 0.8595 2.3090 0.4128
H -0.0429 1.8066 0.6667
H 0.7535 3.3762 0.5004
H -0.8801 -1.9302 0.0434
O -2.7602 -1.8979 -1.8455
H -0.0827 -0.8727 1.7023
23

C -2.2834 1.1888 1.2240
H 2.2342 -2.4787 -1.9922
C -1.6909 0.2647 2.1148
C -0.1654 0.2085 1.7032
H 0.4522 -0.1563 2.4706
H 1.6349 0.6003 0.3905
H -2.0413 -0.4015 2.7977
C 0.7938 -0.8597 -1.8099
C -0.3111 1.0539 -0.6479
C -1.0324 1.4414 1.6303
H -0.6504 2.4124 1.6469
O 0.4768 -2.0650 -1.0204
H -3.0797 1.6107 0.7325
H 0.4194 -2.3473 -0.1137
H 3.2727 -0.3456 -1.9737
C -0.5681 -0.1888 0.2091
C 1.7703 -1.6580 -1.5578
H 0.0026 -0.5019 -2.4281
H 0.2958 1.8359 -1.0742
C 0.6165 0.4562 0.3966
N 2.3034 -0.3539 -1.6385
H -1.2200 1.2858 -1.1554
H -1.2298 -1.0019 0.0958
14

O 0.2715 -0.0295 -0.2852
H -0.5173 0.4959 -2.3048
O -0.5058 0.2975 -1.3973
H 3.1775 -0.4637 -1.9206
H -0.9657 -0.5343 2.0574
H -0.8881 0.5213 3.3252
H -0.5342 1.0873 1.5482
O -2.3295 0.9959 2.1953
H -1.2365 -1.4472 -0.4552
C -1.1543 0.5279 2.2520
H 2.0927 1.1339 -1.4845
H 0.3551 -1.8267 -1.0557
C -0.3296 -1.0486 -0.7964
C 2.5641 0.2903 -1.6785
16

C 1.0579 -1.3954 -0.4496
C 0.9758 1.9126 -0.7297
C -1.0906 -0.8241 0.5731
C -2.3318 -0.9501 -0.1277
C 0.8622 -0.0577 -0.3427
H -2.8439 -1.5947 0.5046
H 1.2572 -2.2703 -0.9060
C 1.4399 -0.7357 0.6152
O -0.3952 -0.3219 1.5923
H -0.7689 1.5394 -0.0037
N -0.6511 -1.6814 1.3612
H -2.9253 -0.6084 -0.9004
C 1.3634 3.0073 -1.0225
H 2.0791 -1.0431 1.3247
H 1.8146 3.8838 -1.2533
C 0.1568 1.1396 -0.2354
15

H -0.7722 -2.0793 -0.5617
H 0.0311 -0.9603 2.1552
C 0.1385 0.9033 1.0165
N -0.6298 -1.5393 0.2806
N -0.8227 1.2027 0.1006
C 0.1041 -0.6837 1.1332
H -0.0637 1.3741 1.9765
O 1.4521 1.0462 0.5181
H 1.7012 0.7913 -0.3569
H -1.8542 0.5701 -1.3993
N 0.7291 -1.4430 0.1913
H -0.1794 0.1569 -1.8796
C -0.8017 0.8377 -1.2728
H -0.5448 1.7721 -1.7826
H 1.5122 -1.9489 -0.1193
16

O 1.4429 -0.1443 -1.3728
H 0.5212 2.2411 0.3909
H 2.0360 -0.0203 -2.0635
C -1.8083 0.4196 0.0509
C 0.9500 1.5300 1.0711
H 1.5945 1.8907 1.8384
H -0.6901 -1.0454 -2.0374
C -0.0838 -0.5529 -1.3598
C -0.7684 -0.5408 0.1458
N -0.7489 -1.9751 0.1497
C 0.6352 -0.2352 -0.2842
C 0.6960 0.1733 1.0641
H -2.4433 0.6754 0.8553
H 0.9270 -0.4574 1.8805
H -2.1028 0.7891 -0.8937
O -0.1573 -2.7478 0.5646
17

C 0.6939 -0.8369 0.4133
C -1.8646 0.2940 -0.7093
C 0.5328 0.0861 1.5691
H -0.0356 1.1789 -1.1646
N 1.7719 -1.9877 -0.6395
C -0.6455 0.9170 -0.3185
C 0.2360 1.2982 0.8483
C 0.6636 -1.2566 -0.9567
H 1.9894 -2.9344 -0.7795
H 1.4041 0.0753 2.2126
H -0.3001 -0.2167 2.2126
H -2.5693 2.1169 -0.4114
O 1.9039 -0.6765 -0.1561
O 0.1461 -1.2256 -2.0981
H -2.5965 -0.4181 -0.9847
H 0.6850 2.2005 1.2077
N -2.0150 1.3857 -0.2452
15

N -0.4492 -1.0594 -0.4905
N -0.3518 -2.2985 2.7780
C 0.5163 -1.8975 -0.9649
C -1.0088 0.3242 0.1206
H 0.4775 -2.9035 -0.6026
C -0.5190 -1.6689 1.8816
H 0.9095 3.1748 -0.5082
H 1.1453 0.8529 0.2941
H -2.0328 0.5524 0.2404
H -0.4251 1.6033 0.8817
H 1.1936 -1.6332 -1.8124
N 0.4372 2.3701 -0.8429
C -0.6539 -0.8670 0.7627
H 0.5522 2.1767 -1.8051
C 0.2091 1.2737 0.0676
19

C -0.1374 -1.6439 0.5167
O -0.2393 0.4462 -1.2028
H 1.6571 3.6657 -0.8413
C 1.1358 2.6041 1.1444
C 1.4003 2.9133 -0.1655
H -0.5033 -1.4983 1.5092
H 0.8662 -1.2947 0.4777
C -0.7017 -0.6469 -1.5694
C -0.5751 -2.7952 -0.3234
C -1.2782 -1.4560 -0.4628
H 1.1946 3.3832 1.8029
H 0.2999 -3.3097 -0.6969
H -0.0703 0.8571 2.2359
C 0.4125 1.3596 1.4654
H -0.8180 -0.9652 -2.5725
N 1.0125 1.6707 0.4012
H -2.2523 -1.0770 -0.1571
H -1.3521 -3.5409 -0.2380
H -0.0510 1.3277 -1.3238
16

N -1.3725 -0.9464 0.9181
H -1.0655 -0.7959 -2.2950
H 1.5733 0.2304 -1.3651
C 0.8892 0.4771 1.5652
H 0.9140 -0.5824 1.7099
H 1.5186 1.0862 2.1806
H 0.4711 2.6644 -0.5864
C -0.5587 -0.5032 -0.2746
H -0.2442 -2.7400 0.0054
N 0.0286 1.3308 1.0329
C 0.4073 1.6490 -0.2157
H -0.7706 0.8821 -2.1864
H -1.2436 -1.2829 1.8625
C 0.6240 0.3275 -0.8301
C -0.5647 -1.7443 0.1349
C -0.6064 -0.0523 -1.6563
16

N -1.2133 -0.3877 -0.2845
H -2.6160 -0.4729 -1.3555
N -2.3256 0.0059 -0.4898
H 1.2752 -2.1873 -0.6312
C 0.9770 -1.4663 0.1005
C 0.0562 -0.4308 -0.7453
H 2.7004 0.5606 1.3415
H -3.6097 1.3616 0.4495
C 0.9459 -0.0228 0.2254
H -0.1586 1.1015 1.4776
O -2.9260 1.1689 -0.1903
N 0.6517 1.0821 0.9869
O 2.5917 1.1277 -0.6254
H 0.2921 -0.3649 -1.7937
H 1.2830 -1.8367 1.0767
C 2.0764 0.7611 0.4575
20

H -1.7885 -0.6638 -2.0209
O -1.4711 1.2443 -0.2154
H 0.2311 2.5028 2.0009
C -1.0450 -1.3410 -1.6111
C -0.3977 -0.9884 -0.3743
O -2.3912 -0.1348 0.8921
C 0.7180 2.5956 1.0203
H 2.4891 0.7811 1.7615
H 1.6052 3.2675 1.0380
C 0.4576 -1.0277 -1.6978
H 1.2863 -0.3169 -1.6089
C 1.1826 1.3266 0.7759
O 1.7454 0.4022 1.2641
C -0.2611 -2.0394 0.5378
H -1.3789 -2.3683 -1.7042
C -1.4658 0.1230 0.1672
H -0.2482 -1.7471 1.5681
H 0.7996 -1.6987 -2.4926
H -0.0617 -3.0680 0.2973
H -0.0057 3.1510 0.4021
20

H 0.1228 -1.9052 0.4862
H 2.7931 -1.8787 -0.4951
H -2.0905 -0.9696 -1.3919
H 2.8091 -1.4812 1.1934
H 0.4692 1.7127 0.2080
C -1.1862 0.3903 0.1128
H -3.3538 0.2598 -0.9140
N -1.3704 1.0624 -1.1134
H 1.2288 -0.2587 -1.0683
C -2.2994 -0.0214 -0.8887
C 2.1484 -1.4964 0.3110
O 0.9988 -2.2060 0.7481
H -1.0700 1.5375 2.0186
C 0.2351 0.6538 0.4776
C 1.4959 -0.1295 -0.0230
H 2.2719 0.5804 0.2819
O -1.7816 1.5849 -2.2029
C -0.5914 0.6141 1.6803
H -0.7209 1.7916 -1.9804
H -0.1088 0.1591 2.5599
18

H -2.1964 0.3509 0.8910
O -0.7184 -0.7254 1.6370
H -0.9041 1.5073 -1.1455
H 1.9309 -0.8675 -1.8960
H 1.7724 0.8010 -2.2682
C -0.5871 0.6900 -0.5020
H 0.9296 0.2624 2.4785
H -0.6645 0.5304 3.2227
C -0.1544 0.2391 2.3110
O 0.6907 2.0988 0.9096
C 0.7572 0.1095 -0.6572
N 0.9440 1.1718 0.2880
H -0.9695 -2.9554 -0.6537
O -0.7380 -2.0183 -0.5780
N 1.8789 0.0768 -1.5509
C -0.3654 -0.7930 -1.1443
H -0.4887 -0.7309 -2.2269
C -1.1172 0.2524 0.8847
15

H -1.0417 0.5823 -1.6639
H 0.4307 0.4692 -2.6582
H -0.4186 2.0590 -2.3300
C -0.1121 1.0889 -1.9343
O 2.0743 1.7111 0.0298
H -1.2964 -0.1792 3.2282
H -1.7710 -0.8925 1.7044
H -0.2989 -2.1386 0.4424
H -0.1379 -1.3098 2.5232
C -1.0367 -0.7980 2.4356
O 2.0790 0.7341 -0.5574
O -0.1175 0.0170 0.3594
C 0.9577 1.1674 -0.8639
H 0.6918 -1.3138 -0.7574
C -0.0027 -1.1971 0.0420
18

O -0.4211 2.4282 1.2950
N 1.0053 -1.4785 -1.8983
H -1.7851 -1.1272 -0.0614
C 1.0876 0.2050 1.0235
H -0.6202 -0.6011 2.2445
H -1.3149 2.0414 1.2501
H 0.7923 2.2601 1.0192
H -0.1920 1.2610 -1.2931
H 1.9840 -1.6657 -2.1042
C -0.9219 0.4673 -1.2048
C 0.2591 1.2013 1.2317
H 2.0830 0.0811 0.6568
N 0.7732 -2.0826 -0.7813
C -0.3011 -0.1729 1.3271
H -1.8599 0.8349 -1.6579
C -0.9564 -0.4374 -0.0722
H 0.2180 -2.4343 0.0062
C 0.1700 -0.7805 -0.9811
17

H -0.0575 -2.4086 0.4930
H 0.7981 0.9542 -2.3791
C 0.6020 1.2786 0.5273
C 0.0074 -1.6937 1.2787
H 0.6755 2.0630 1.2247
H -2.2330 -1.0142 0.1937
N -0.7397 1.4343 -0.8491
C 0.1577 0.3464 -0.5600
C 0.2006 -0.2623 0.7555
H 1.4862 2.2049 -1.4061
N 1.3334 -0.4540 -0.1620
O -2.9780 -1.2399 0.1501
H 2.0608 -1.0523 -0.4324
H -1.6208 1.2200 -1.2373
C 0.6901 1.4579 -1.3999
O -0.8013 -0.7020 1.6447
H 0.4185 -2.1325 2.1583
21

O -0.4951 1.2438 -0.1019
C -1.4626 -0.0936 2.2174
H -1.5971 0.4413 -1.6938
H 2.6403 -0.2411 -1.6119
H 0.9533 0.5084 -3.1002
C 1.6591 -0.0366 -1.2259
C 0.0512 0.0982 0.5601
H 0.3789 0.9152 2.4601
H -2.3076 -0.6946 1.9749
H -1.8079 0.8549 2.5064
H -0.5492 1.8357 -2.0628
C 0.5555 0.0553 -2.1944
C 1.4476 0.2427 0.0798
H -1.4750 -1.4252 -0.0187
C -0.5973 0.8682 -1.5454
C 0.0201 -0.0398 2.0916
H 0.1652 -0.9354 -2.4458
H 0.2000 -2.0195 0.3967
H 0.5807 -0.8300 2.5791
C -0.4741 -1.2147 0.2668
H 2.1139 0.4668 0.8679
17

O 2.0581 3.4243 0.5653
C -0.3497 -2.5422 -1.7249
H -0.1798 -3.5835 -1.7346
H 1.8225 0.3088 1.7128
H 0.4472 -0.6935 1.6421
N 0.9135 1.4682 0.3678
H -0.1264 -2.0055 -2.6058
H -1.1474 -2.3486 0.1791
H 0.2618 3.1722 1.4337
C -0.8356 -0.3728 -0.8655
N -1.5984 0.4190 0.0918
C -0.1789 0.5798 0.2316
C 0.8633 0.2173 1.1988
H -1.1253 -0.0269 -1.8587
C -0.7772 -1.8003 -0.6721
C 1.1190 2.7641 0.8395
O -1.1667 1.0196 1.1992
20

C 1.0551 1.0542 0.3882
C -0.2454 -1.1972 -0.4345
H 1.9540 2.4984 1.9487
O 0.8627 1.0490 1.7151
O 1.0073 2.3368 2.1017
C 1.7977 1.8551 -0.4123
H -0.6362 -1.0827 1.6898
H 2.0525 2.7812 -0.7980
C -0.1833 0.2959 -0.1673
H -1.6263 0.5053 -1.6840
H -0.4083 -3.3182 -0.9447
H -2.0266 -0.4722 0.7506
O 2.2672 0.6900 -0.2850
C -0.9565 -0.6700 0.7354
H -0.5498 1.9763 -1.4104
H -1.2753 -3.0391 0.5053
H -1.8927 -2.3559 -1.0194
H 0.6051 -1.3441 -1.0683
C -0.8153 0.9847 -1.1919
C -0.9860 -2.5475 -0.4190
14

H -2.5152 1.3741 -1.4886
O -1.2826 -1.3464 2.1568
O -2.4387 0.3720 -0.0204
H 1.0126 1.0387 1.4374
C 1.6274 -0.1465 -0.5085
H 0.1180 0.5501 -1.8569
H 2.4619 0.1835 -1.1115
O 1.3789 -1.4738 -0.1996
N 0.3196 0.4756 -0.8651
C 0.6341 0.5818 0.5368
H 1.6161 -1.4083 0.7592
N -0.4555 -0.8207 1.6219
N -1.9922 0.7809 -0.8686
C -0.4845 -0.1609 0.4071
19

N 0.2715 0.4554 -0.2019
H -1.0907 2.3410 0.5811
H 2.2903 -0.3229 0.2401
C -0.4347 -0.1105 -1.3110
H 2.4518 0.3061 2.8205
H -2.2025 -1.3028 -1.6936
H -1.4622 1.5575 -2.0759
H 0.5155 2.3951 0.0714
C 1.0602 -1.5615 1.0578
O 1.2675 -2.7274 0.9459
C 1.6880 -0.1273 2.2458
H -2.3961 0.9449 -0.6998
H 0.1682 -0.2785 -2.1989
C -1.3836 1.1248 -1.0721
C -1.3866 -1.1720 -1.0233
C -0.3943 1.7657 -0.0512
H -1.1675 -1.8845 -0.2784
N 1.2883 -0.3877 0.2692
O 0.9169 -1.0154 2.3744
15

H -2.1444 0.5596 1.1886
C -0.3134 -1.7543 -2.7615
C 0.2173 -0.8302 -1.9040
N 0.8994 -0.0992 -0.9459
N 0.5122 -0.8944 -2.9977
C 0.4412 0.7610 -0.2134
O 2.4666 1.0752 0.3537
H -0.7290 -2.5323 -3.2716
C -0.1825 0.0563 1.6099
H 0.5122 -0.6403 1.6684
H -1.2860 0.8860 3.5696
C -1.2921 0.5017 1.7298
N -0.7034 0.5738 2.8535
H -0.2414 1.5110 -0.3352
N 1.8434 0.8261 -0.5442
17

H -2.6385 1.0327 0.4490
N 1.4672 -1.2230 -0.1174
H -1.3945 -1.7383 0.0070
C 0.4488 -0.0904 0.9687
O -1.3899 -1.5578 -0.9460
H 0.9307 -1.9777 0.2849
C -0.6237 -0.4784 -1.1718
H 2.3741 0.7736 -0.1007
O -1.5640 2.1258 -0.9740
C -0.5472 0.4331 -0.0814
H 0.0119 2.2016 1.3710
C -1.7492 1.2860 -0.1446
H 2.4136 -1.5759 -0.2036
H -0.1162 -0.2783 -2.0996
C 0.3025 1.3429 0.7981
C 1.4990 0.1848 -0.0104
H 0.5755 -0.4606 1.9710
17

O 1.3457 0.3357 -0.6213
C 3.2023 -0.9039 -0.5464
C 1.9244 -0.4542 0.4061
H -0.2683 0.3049 1.6649
C -0.2420 0.2556 0.6006
O 4.0646 -0.8346 -1.2838
N -3.2406 -0.4466 0.0721
H -3.1120 1.4732 0.2583
C 0.5384 -0.7156 -0.1245
O 2.7411 -1.6297 0.3267
N -4.1211 -1.0826 -0.2692
H 2.0771 0.0517 1.3383
H -0.7943 1.2707 -1.1956
H 0.3410 -1.6357 -0.6618
H -0.9117 2.2201 0.1521
C -2.4902 0.6119 0.0385
C -1.0545 1.1790 -0.1551
20

C -0.7665 1.4321 -0.8191
C -0.1922 0.4376 0.6573
H 0.1324 -1.6090 1.9270
H -0.2179 2.9932 0.4905
H -0.4736 2.1100 -1.6440
C -0.3644 1.9389 0.7744
H -0.4457 -1.0458 -2.5211
H 1.2128 -2.6580 -0.3783
H -1.8726 1.4432 -0.8475
H 1.4558 -0.4559 1.7546
C 0.3647 -2.0563 -0.6920
C 0.3788 -0.5440 1.9184
H -0.5623 -2.2774 -0.1641
C 0.3574 -1.1180 -1.7561
H -0.2993 2.0125 1.8947
O -1.4320 -0.1104 0.8500
C 0.2264 0.2743 -0.8484
H 1.2681 0.6104 -1.0604
H -0.0478 -0.1433 2.8336
H 1.2780 -1.2341 -2.3696
19

C 0.6102 1.0575 -0.6600
H 0.4569 1.5608 1.5785
C -0.0153 1.4808 0.6175
H -1.5913 0.9317 -1.7680
H 2.2702 -0.4407 0.7004
H 0.5579 1.9374 -1.2722
H -0.7795 -1.8815 -0.8529
H 0.5167 -1.7690 0.8987
H 1.3954 -0.3525 2.1486
C 1.5034 -0.9194 1.2590
O -0.9902 -0.5452 1.2575
H -1.4767 -0.5089 -2.8634
O 1.4408 -2.2190 0.9345
C -0.8683 -0.8153 -0.9034
H -1.8610 -0.2292 1.3771
C -0.3694 0.1104 0.1404
H 1.2970 0.4424 -1.2264
H -0.7538 2.2538 0.5349
C -1.3428 -0.0940 -1.9008
16

H 1.2343 -0.1033 2.8032
O -0.3998 0.6389 1.7322
H 1.3382 -0.6387 -1.0915
C -0.4004 1.3378 -0.6145
H -1.4748 0.6675 -2.4689
C -1.2762 -0.7807 -1.0050
C 0.8986 -0.6486 -0.1128
H -1.7345 -0.8931 -0.0522
H -0.3550 2.3902 -0.7657
C -1.1087 0.5039 -1.4615
N 1.2780 -1.1903 1.0932
N 0.6565 -1.9599 0.3481
H -1.0764 -1.6635 -1.5648
C 0.6869 -0.0521 1.8769
C 0.4888 0.8150 0.5510
H 1.2445 1.5769 0.7323
14

H 0.9823 0.2252 1.9698
C 0.4547 0.1921 -2.0935
C -0.3283 0.1480 0.1057
H 1.7871 -0.2949 -0.5481
N -1.6154 0.6977 -0.0893
O -0.6929 0.1686 -2.5461
H 0.2455 -2.0556 0.9646
C 0.8225 0.0783 -0.7615
C 0.4988 -0.4340 1.2761
H -1.3748 0.8318 2.0556
C -0.8829 0.4600 1.2394
O 1.1195 -1.6661 1.2206
H 1.3274 0.3119 -2.7586
H -2.3435 1.3369 -0.0347
19

H 0.4837 -1.1559 -1.3563
H 1.1640 1.2718 0.1092
H 1.8807 -1.1259 0.6279
C 1.4115 -0.4411 1.3684
H -0.4977 -2.1370 -0.4151
H 0.6164 1.3826 1.9289
H 0.2898 1.1506 -2.0834
H -0.8451 -0.8515 1.3988
H 2.3189 0.1153 1.6795
C -0.0177 -0.5001 0.7933
C 0.4774 0.8785 0.9371
C -1.4128 -0.1667 -1.1418
H -0.3799 1.5426 0.6787
H -2.1266 -0.7709 -1.7156
C -0.2926 -1.0774 -0.5934
C -0.7542 0.9332 -1.8887
H 1.2604 -0.9571 2.3400
H -2.1070 0.2616 -0.4214
H -1.4691 1.6474 -2.2463
19

C 0.6594 -0.2406 -0.4211
H -1.9516 0.2054 2.3537
C 1.2805 -1.2751 0.5846
H 2.1854 -1.5377 0.0340
C -1.3808 0.5602 1.4614
C 0.0559 0.5583 1.6644
O -1.5616 -0.3179 0.3232
C -0.9878 1.4907 -1.0932
H 0.4230 0.4115 2.6827
H -0.1179 0.0127 -2.9396
H 0.5331 -2.0889 0.5477
H 0.3996 -1.4261 -2.1941
H -1.7859 1.5659 1.1979
O -1.2421 2.5690 -1.1724
C 0.3783 -0.3400 -2.0126
H 1.2500 0.2604 -2.3866
O 0.8797 0.7885 0.5994
H 1.6938 -1.3118 1.6075
C -0.7110 0.1154 -0.8369
20

O -0.8786 -2.7278 0.3739
H -1.9901 -0.2071 -2.0428
H -0.3451 2.6918 1.5525
C -0.3042 0.6073 0.5911
H -1.7516 -2.7775 0.0336
N 1.4968 -1.4983 0.6120
C -0.1652 1.7097 -0.2690
H -0.4084 3.7022 0.1072
H 0.0848 1.6367 -1.2725
C 0.9703 -0.9902 -0.6503
H -1.2827 0.3845 0.9191
C 1.1466 0.0372 0.4953
C -0.3629 2.7518 0.5218
H 1.6094 -0.9226 -1.4875
H 1.9696 0.6834 0.4578
O 0.4603 0.3075 1.5944
C -0.1923 -1.8114 -0.1061
C -0.4757 -1.2175 -1.1126
H 1.8768 -1.4331 1.5296
O -1.4577 -0.9265 -1.8475
18

H -1.4299 2.1455 0.0775
O 0.8676 -0.2706 0.6447
H 0.3177 -1.8685 -1.2968
O -1.9251 -1.7154 -0.9751
C -0.4233 0.1580 0.3829
H 2.3197 -1.3762 -0.1094
C 1.4417 -0.2683 -1.6470
C -0.6566 1.6226 0.6244
H -2.8815 -0.1440 1.0523
N 0.7190 -1.2449 -2.0072
C -0.9796 0.6598 1.7571
H 2.8395 0.2882 -0.0473
H -0.7109 0.6755 2.7772
C -1.8381 -0.1758 0.8551
C -1.4498 -0.8507 -0.2982
H 1.6639 0.4258 -2.4733
H 0.1543 2.2815 0.9339
C 1.9716 -0.3426 -0.2509
21

C 0.9805 0.3763 0.0202
C -0.7461 0.6393 -1.0221
C -1.8768 0.1821 -0.6128
H 2.0253 -1.3541 0.8402
C -0.6745 -1.4737 0.5536
H -2.0108 -2.4771 -0.4151
C -1.6181 -1.4573 -0.6118
C -1.4969 -0.4758 0.6866
C 1.8700 0.7125 -0.9607
H -1.8290 -1.4629 -1.6965
H 2.3408 0.0062 -1.6184
H -2.9150 0.4716 -0.7600
H -1.7701 0.0596 1.5800
H 2.6734 0.2456 1.3851
C 1.9661 -0.2805 0.7872
H 2.1269 1.7563 -1.0940
H 1.2041 1.7191 1.7073
H -0.1184 -2.0210 1.2611
C 0.5831 1.4088 0.8944
H -0.2633 2.0337 0.7807
H -0.4511 1.3911 -1.7048
16

H 1.5968 0.0026 1.1428
C -1.4723 0.8154 0.9865
C -0.0279 -1.2865 1.2290
H -0.0575 0.0188 -1.9849
N -1.4047 1.4259 -1.2864
H -1.9941 1.5681 1.4989
C -0.9232 0.7231 -0.2003
C 1.2152 -0.7863 0.5322
N -1.2671 -0.3981 0.9271
N 2.3736 -1.1673 -0.2748
H -2.0623 2.1279 -1.1816
H -0.1756 -1.8630 2.0965
N 3.1833 -1.8025 -0.6087
H 0.6348 1.5555 -1.6591
C -0.1330 0.8933 -1.3752
N 0.5141 -1.8271 0.1580
23

H -4.0629 1.5817 -1.0901
H -2.5505 0.0647 -0.9619
H 1.1002 1.5484 -0.6012
O -3.7252 1.6119 -0.1767
H -1.9171 2.7016 -1.1444
C -2.5743 1.0003 -0.4134
H 1.7257 -2.9076 0.8628
C 0.0796 -0.2746 -0.3804
H 0.2114 -0.8958 -1.2509
H -1.6966 -1.1750 0.7861
C -0.7857 -0.6818 0.6884
C 2.6412 -0.8341 0.4035
H 2.6416 -0.0211 1.0616
H 2.7088 -1.5949 1.4677
H 2.9730 -0.4643 -0.5107
H -0.5121 2.7877 -1.5846
C 0.3319 -0.5930 1.0872
H -2.1814 0.9111 0.5874
H 3.2976 -2.8274 0.2375
H 0.7685 -0.8418 2.0000
C 0.0826 1.1684 -0.6554
C 2.5130 -2.2665 0.6125
C -1.0693 2.0023 -1.0249
21

H 2.4766 -0.7623 -1.6797
H 0.9806 -1.3092 -2.4675
H -1.2355 -0.6696 -1.2689
H -2.6805 -0.9706 1.5557
H 1.9551 -0.0380 -3.2018
C 0.0153 0.7136 -0.2444
O 2.5218 -0.5896 0.7297
C 0.9912 0.7035 -1.3848
C 1.5690 -0.3792 -2.2236
C -2.4470 0.0302 1.1704
H -0.1583 -1.6255 -0.1852
H 0.8555 0.4281 2.1488
C -0.9423 0.1043 0.9366
H -2.7169 0.7826 1.9175
C -0.1737 0.1395 2.1611
H -0.6014 0.1191 3.1303
H -3.0721 0.2432 0.2942
H 1.3222 1.7218 -1.6399
C -0.6052 -0.6322 -0.3624
H 2.2525 0.2402 0.6826
H -0.3069 1.7503 -0.0687
21

H -0.2541 -1.3665 -3.5413
C -0.0110 0.7596 -0.2768
C -0.0611 0.1993 -2.0987
N -0.1500 -0.5592 -0.8022
H -1.4724 2.0852 0.3938
O -2.1725 -0.9438 0.1285
C 0.9725 -0.4646 1.6440
H -1.0099 0.5577 -2.4939
H 1.9926 -0.5723 0.0026
H 0.1891 -1.1734 1.8407
C -1.0307 1.1823 0.7593
H 0.8198 1.4337 -0.3329
O 1.9685 -0.3055 0.8982
H 0.6565 0.9862 -2.3692
H 0.5274 0.8159 3.1353
C -1.2445 -0.1113 0.0400
C 0.3086 -1.0959 -2.7046
C 0.3704 -0.1580 2.8226
H -1.3316 1.1305 1.7723
H 1.0788 -1.7339 -2.3786
H -0.1463 -0.6658 3.5611
19

H -0.5763 3.1320 -1.2290
C -0.1716 0.6857 -1.1489
O -0.0640 1.8208 1.2272
C 0.6567 0.7942 1.5437
C -0.4169 -1.7180 0.5052
H -0.1580 0.2692 2.2511
C -0.1595 2.1302 -1.3465
H 1.6301 1.3725 1.1228
H 0.8153 2.3250 -1.8918
N -0.0120 -0.6287 -0.2220
H 1.3597 0.2377 2.1573
N -1.3810 1.3099 -1.2108
H -0.7064 -2.6302 -1.4250
C -0.1681 -2.7043 -0.5080
H -1.4786 -1.7550 0.7600
H 0.1452 -1.8774 1.4260
H 0.2347 0.2354 -2.0530
H 0.4628 -3.5462 -0.2989
N -0.0122 0.5473 0.3405
19

H 0.6003 1.7227 1.2130
H 2.8340 -1.7523 -0.0952
H -0.8213 2.4309 -0.8818
C -0.9570 -1.1172 -0.2796
H 1.0691 0.7962 -1.4614
C 0.5695 -1.1349 -0.2557
C -1.3302 1.7937 -0.1419
C -0.0092 1.2406 0.4458
H -1.9065 2.3769 0.5784
C 0.6167 0.3589 -0.5721
H 2.3980 -0.5699 1.1060
C 2.0924 -1.4568 0.6139
O -2.3563 1.0621 -0.7443
H 1.7071 -2.2063 1.2645
C -0.3401 -0.2474 0.6723
H 0.7602 -1.8365 -1.0566
H -2.3882 0.5059 -1.5106
H -1.8660 -1.5558 -0.6014
H -0.6725 -0.4108 1.7067
18

O 0.7947 2.0237 -1.4209
H -0.0836 1.8058 -1.7781
H -0.0725 -0.4765 -1.6666
C -1.8125 0.0564 -0.3220
H -2.5152 0.7028 -0.7463
N 1.8831 -1.3819 -0.2352
C -0.5236 -0.1926 -0.7545
H -2.3668 -1.0235 1.6557
H -2.0447 -1.9397 0.0790
C -0.7415 -0.0693 0.6552
H 1.5618 1.9326 0.5288
C -1.9022 -1.0729 0.6936
C 1.1423 1.8119 -0.3970
H -0.6431 0.6535 1.4252
H 2.2676 -1.1009 -1.1024
H 2.3547 0.0018 0.9642
H 1.0847 -0.9993 1.6459
C 1.6169 -0.7319 0.7755
19

H -1.6287 -0.3715 1.8089
H -1.6902 -0.7497 -1.4695
C -1.1986 0.8726 1.5485
H 0.6591 0.2673 -2.7981
C 0.1210 -1.2855 0.3601
C -0.8061 -0.4763 0.9801
H 1.5615 1.6606 -0.2700
H 1.3770 0.6408 1.1325
C 1.6939 0.6261 0.1018
H 1.7090 -1.1997 -1.1225
H 2.7497 0.3711 0.0891
C -1.0615 0.1185 -1.3853
O -1.2304 -1.7822 0.7783
H -1.6015 1.1803 2.4605
H -1.5764 1.0354 -1.1868
H 0.6946 -2.1614 0.5796
H -1.0329 1.6822 0.9097
C 1.0303 -0.4860 -0.6962
C 0.2304 0.0572 -1.8207
20

H 1.9569 -0.7467 0.4041
H 1.6760 1.6897 -1.1097
H -0.9010 1.4388 -2.0716
H -2.5588 0.4167 1.0924
C -1.1747 1.2491 -1.0702
H -1.3829 2.1347 -0.5166
H 0.9242 -2.9095 -0.3561
C -2.0503 -0.4673 0.6507
H 0.4519 1.5737 1.4308
H 2.2331 1.1183 1.1463
C -1.0861 0.1075 -0.3363
C 1.2068 -0.3109 -0.1815
H -0.0349 -1.1872 1.2593
H -2.7110 -0.9814 -0.0801
N 1.5208 -2.8501 -0.8726
C -0.2978 -0.6159 0.4197
H -2.1485 -1.1828 1.4723
O 1.3153 1.2167 1.3785
C 1.4411 0.6855 -1.0363
O 1.6198 -0.3787 -1.6232
17

C 0.1656 -0.0330 1.1796
C -1.5395 1.3684 -0.5765
N -0.3357 0.9075 -1.4813
H 0.0318 -1.0852 1.4943
N 1.0187 0.5618 2.0347
H 0.4982 1.9811 0.2140
H -1.7889 2.3870 -0.2316
H 0.5000 0.6708 -1.9905
O -0.5583 -3.2132 -0.6111
H 1.4681 -0.7661 -0.8818
N -1.1178 0.3069 0.4642
C 1.3178 -1.7020 -0.4593
C -0.0519 1.1073 -0.1208
C 0.2185 -2.4200 -0.4717
H 0.4080 1.1161 2.6368
H 2.1685 -2.1775 -0.0858
H -2.4032 0.9899 -1.1130
19

C -1.7093 -0.4911 0.1587
C -0.0640 -0.0348 -1.9788
O 0.4909 -1.2901 -1.5839
H 1.0032 0.7587 2.7138
H -0.4172 -0.2478 -3.0097
H -0.2313 1.3748 1.6453
H 0.4288 0.9164 -2.2916
H -0.4239 -0.1126 2.5133
C -0.7033 0.3591 -0.6770
H -0.4400 1.4133 -0.4763
H -2.4693 0.3094 0.1735
H 1.9222 0.3422 -0.4090
H -2.1880 -1.0378 1.0150
O 0.8230 -0.5897 1.0929
H 1.1981 -1.5969 -2.1557
H 2.4494 0.5811 1.2162
C 1.6264 0.2765 0.6117
C 0.3176 0.4563 1.9027
H -1.6137 -1.3869 -0.4609
19

N -0.9724 0.6395 0.3444
H -2.3105 -0.3811 1.5947
C -0.4190 -0.9091 2.2208
O 1.8235 1.1323 -0.9235
H -0.6254 -0.2308 3.0665
H 0.0458 -1.8313 2.6139
C 0.9431 0.0461 -0.5344
H 1.7999 -0.0882 2.0149
H -1.7096 -1.4404 0.2884
N -0.2791 0.3632 -2.5530
C -0.3987 0.5998 -1.0650
C 0.1397 -0.3857 0.8821
H 1.3759 -0.8311 -1.0458
H 1.5982 1.6568 -1.6603
N 1.5267 -0.1638 1.0193
H -0.9108 -0.1442 -3.1740
C -1.4061 -0.6331 0.9890
H -0.6915 1.6779 -1.0648
H 0.4703 0.9233 -3.0134
20

H 1.4963 -0.5217 -1.7057
H -2.9877 0.2581 -1.1014
C 0.9684 -1.1748 -0.9822
H 2.6391 0.6797 1.9233
H 2.7746 -0.2754 0.5025
H 0.0987 0.8922 1.6895
N 1.1483 -1.0516 1.7671
H 0.2730 -1.9111 -1.4170
C 0.0811 -0.2229 -0.2199
C -2.5950 0.7940 -0.2338
H -0.9144 0.6647 -2.0119
H -3.2334 0.5611 0.6297
C -0.5853 0.8445 -0.9912
H -2.5611 1.8661 -0.4225
H -0.3282 1.9018 -0.9065
C 2.0793 -0.0463 1.3216
H 0.4992 -1.7971 1.5408
C 0.6402 0.1465 1.1371
N -1.2812 0.2100 0.1240
H 1.7881 -1.8180 -0.6436
18

N 0.8996 0.5212 -1.9784
H 1.1817 -1.3425 1.8747
C -0.2255 0.5058 0.1016
H -1.0102 1.9451 -2.3669
H 0.7482 -2.0621 0.3636
H 0.4922 0.9304 2.3811
H -2.1422 1.0237 1.6772
H 1.9021 -0.6737 0.3486
C -1.4381 0.4249 1.0947
O -0.6437 1.6815 0.6103
N 0.0874 -0.2587 -2.5052
C -0.2638 0.5091 -1.3683
H -1.8633 -0.5375 0.9314
H -0.3186 -1.0308 -2.9419
H 2.4257 -2.1173 1.0872
O -1.3202 1.3205 -1.6938
C -0.0503 0.6844 1.5101
C 1.5389 -1.5238 0.8742
21

H -0.6514 0.6406 2.0443
C -1.1847 1.0281 -0.2499
H -0.0073 2.3453 -1.7100
N -1.1071 2.0564 0.7841
C 0.8689 0.4430 -1.1153
H -0.4227 2.7933 0.7849
H 1.4863 -1.4828 -1.7107
H 1.6035 -0.4693 0.8465
C -0.0455 1.4427 -1.1383
C 0.5353 -0.6960 1.0457
H 0.5399 -0.8999 2.1182
H -2.1951 0.9617 -0.6728
H -2.0141 2.2657 1.1776
H -0.8026 -2.0375 0.3317
C 0.6210 -0.9858 -1.2683
H 1.0524 -2.6367 0.8019
C 0.3178 -2.0214 0.1911
C -0.4911 0.5689 0.9721
H -0.2475 -1.1440 -1.9167
H 0.2670 -2.9325 -0.4602
H 1.8768 0.7604 -0.8560
19

H -1.1266 0.6463 2.7059
H 0.7601 0.1383 -2.6733
C -0.0773 0.1758 0.8107
H 0.0205 -1.5004 -2.5152
O 2.1410 -0.4713 -0.1996
N -1.1320 -0.1011 -1.5886
C 0.0907 -0.4952 -2.0791
H 0.1204 1.3629 -0.7999
H -0.1238 -1.7341 1.6274
C 1.4265 -0.0570 0.8299
H -0.8038 -2.0115 0.0132
C -0.3315 -1.2788 0.6629
H -1.8926 1.2212 1.2711
C -0.1157 0.2990 -0.7294
H 2.2944 0.3195 -0.8030
H -1.7841 0.5433 -1.9998
C -0.8985 1.0547 1.7239
H -0.3757 2.0022 1.9012
H 1.8080 -0.1141 1.8416
19

H 1.5706 -1.7490 -1.3171
C -1.8295 1.7976 1.6836
N -0.8105 1.1706 -1.2199
H 0.5316 -1.7313 1.6393
C 0.2726 -0.2944 -2.7536
C -0.6566 1.6598 -0.0493
H -1.2485 -1.2387 -0.1477
O -1.4646 0.7978 2.3978
H 0.7589 -0.8803 -3.4513
C -0.6980 -0.5610 0.4732
C 0.6022 -0.9218 0.8957
C 1.5661 -1.4293 -0.2755
H 2.2072 -0.5612 -0.3338
H -0.0949 2.5408 0.1523
H 1.0950 -0.0898 1.4001
C -1.1217 0.7785 0.9987
H 1.8330 -2.3800 0.1576
H -2.3031 2.7304 1.6576
C -0.2099 0.3617 -1.9078
19

H -0.9182 2.2728 -0.0044
C -1.3054 -0.3069 -1.4836
C 0.7773 0.7336 -0.6073
C 1.1785 0.1497 1.6660
N -0.1118 -0.2669 1.9656
H 2.2383 -0.8307 0.0398
H -2.2139 0.2889 -1.5105
C -0.1212 1.6079 0.2854
H 1.8288 0.4969 2.4348
N -0.9542 -0.6230 -2.7998
H 0.4735 2.1182 1.0473
H 1.0326 1.0215 -1.5921
H -0.7562 -0.3330 2.7144
N -0.5272 -1.3860 -2.0522
C 1.4833 -0.1777 0.3749
H -0.4066 -2.3360 -1.7946
C -0.5406 -0.7982 0.8008
C -0.5565 0.2146 -0.2353
H -0.6006 -1.8458 0.7507
22

C -0.9675 1.6433 -0.0235
H 1.0089 -0.4944 -4.4535
H -1.1955 2.6794 -0.1249
C 0.4172 -0.8865 -0.5608
C 0.6271 -0.5225 -3.4531
H -1.4686 -0.8701 1.1011
C 0.7339 -1.8282 0.3243
H 0.5236 -1.5355 -3.0335
O 0.4147 0.5077 -2.8833
H 1.4148 0.9762 -0.6557
C -0.3492 1.1654 1.1917
H 0.5575 1.7207 1.3915
H -1.3693 0.9683 -0.7374
C -0.6470 -0.2676 1.4100
H 0.8516 -2.8553 0.3611
O 1.3163 0.0618 -0.8674
C 0.7116 -0.8356 1.2544
H 1.4536 -0.6587 1.9994
H -0.7148 0.1285 3.4206
H -1.8073 1.2630 2.7735
C -0.9401 0.6858 2.5266
H -0.5718 -1.0458 -0.9611
17

H -0.8482 0.8687 1.2188
N -0.1187 0.5474 -3.3278
O -0.2309 -0.9937 2.3691
H -0.2375 -2.3271 1.8524
C 0.0686 -1.4141 1.2581
H 1.4861 0.9020 1.6218
C -0.0689 0.0557 0.7052
C -0.5272 -0.4254 -0.5749
H -1.4235 -0.9260 -0.8661
H 0.3664 0.3780 -4.1814
H -0.1171 1.2310 -2.5869
H -0.4875 -0.3132 -2.9067
H 0.3618 -2.0346 0.4459
C 0.3968 1.1476 1.6238
H 0.1960 1.2157 2.6927
H 0.4525 2.1396 1.1862
O 0.7313 -0.0517 -0.5303
19

C -0.8821 -0.0629 0.0917
H 0.6765 -1.8456 1.6765
C -1.0536 1.3862 -0.3895
H 0.3400 2.6666 0.5812
H 0.7334 -2.8109 0.5233
H 2.3133 0.3163 0.6890
C -0.6498 -0.9379 -1.0355
H -0.0799 -1.8240 -1.2428
N 0.2776 0.1072 1.0539
H -1.1222 2.1755 1.5995
H -1.7174 -0.3457 0.7607
H -1.8690 1.6077 -2.3466
C 1.3708 -0.1279 0.3149
H -1.1705 -0.6382 -1.9164
H 1.4026 0.2536 -0.7383
O -1.4940 1.8761 -1.5386
C 1.2391 -1.8503 0.7439
H 2.2685 -2.0474 0.5162
C -0.5832 2.1015 0.6572
14

N -0.5464 -0.8528 1.4508
O -1.1393 1.1156 -0.0424
H -3.1042 0.8399 -0.7263
H -1.3817 -1.0145 1.9234
O 0.8867 0.3102 0.3408
C -0.2817 -0.0840 0.3110
H 3.5396 0.9686 -0.0696
H 4.9514 1.5211 1.2116
C -0.6493 -0.8314 -0.9433
C 4.3179 1.1947 0.5064
N -1.9966 -0.8024 -1.0745
H 0.0772 -1.3485 -1.4428
N -2.1559 0.5386 -0.6969
H -2.5178 -1.5551 -0.7482
13

H 1.9882 -0.8218 -1.5405
O -1.1910 1.2396 0.1229
O -1.5642 1.2699 -1.2067
H 0.1667 0.6123 -2.2597
C 0.1790 -0.5793 -0.0193
O 1.4529 -1.0059 0.5163
H 0.5194 1.2206 1.3447
C -0.2297 0.5252 0.9597
C 1.4158 -0.7833 -0.6888
H -0.5892 -1.2589 -0.2935
N -0.7044 0.8512 -1.9667
N -0.8997 -0.9074 3.0001
C -0.5437 -0.3621 2.0316
17

C 1.3841 0.0515 -0.1388
H -0.7171 1.8226 0.8748
C 0.0980 -1.0838 -0.8514
H -1.1219 0.5487 2.8358
H 1.8313 0.9529 0.3387
C -1.1471 -0.3578 -1.0938
O 0.8761 1.1527 -2.6517
H 0.0415 -1.8590 -0.1031
H 0.1871 -0.5086 2.5461
N 0.2603 1.4209 -1.7700
H -1.3454 -0.7341 1.5650
H 0.4420 -1.4747 -1.7998
C -0.3161 0.8172 0.8113
H 2.1974 -0.6715 -0.3128
H -2.0682 -0.5587 -1.5757
C 0.0377 0.4624 -0.6642
C -0.6396 0.0193 1.9894
15

H -0.1601 0.3946 2.2360
C -0.7088 0.4925 0.2201
C -0.6154 -0.2188 1.4385
H -2.6615 1.0333 0.0593
H -1.8529 2.1121 1.0158
N -0.8377 1.0798 -0.9548
C 2.1307 -1.2429 -0.5420
C 0.8645 -0.9128 -0.2688
O -0.1347 -0.4843 -0.8137
H 2.8886 -1.4723 0.2226
H -0.6034 1.4114 -1.8519
H 2.4240 -0.3095 -1.0698
O -1.1196 -1.3440 1.4178
N -1.7375 1.5312 0.1535
H 2.1237 -2.0703 -1.2626
21

C 1.5366 -1.6817 0.4235
H 0.7288 -1.9836 -0.2685
C -0.2337 0.3647 0.6212
C 1.9497 -0.2665 1.1480
H -0.7014 0.1835 2.9212
N 2.2431 -0.7336 -0.2012
H -2.5862 0.3532 0.9175
C -1.6423 0.8798 0.8977
O 0.1073 1.4072 -1.6267
N -1.5908 -0.8840 -2.3234
H -1.9843 0.3409 -2.5624
H 1.8743 -2.5581 1.0061
H 1.5368 -0.4216 2.1751
H 2.9701 0.0769 1.4482
H -1.0907 -1.3854 -3.0568
C -0.7603 0.5321 1.9300
H -0.2573 2.2418 -1.8728
H -1.7583 1.8963 0.5565
C -0.3594 0.5165 -0.8497
C -1.0382 0.2315 -1.9183
N 1.0561 0.8900 0.6347
16

C -1.0995 0.3496 -0.5328
C 2.4890 1.4364 0.6145
C 1.6599 0.6258 0.2887
C 0.2121 -0.1887 -0.9786
C 0.0565 1.2070 -0.6878
C 0.9531 -0.9289 0.0548
O -1.8470 -1.5804 0.4415
H -1.1771 -1.8948 1.0585
H -2.6756 0.0308 1.3968
H 1.2059 -1.2907 1.0471
H 0.4470 -0.3533 -2.0120
C -2.1015 -0.1756 0.4915
H 3.2599 2.1635 0.9219
H 0.7973 -1.9565 -0.3785
H 0.2617 2.2081 -0.9904
N -2.4419 0.3478 -0.7352
15

H -2.8853 -0.3728 1.2484
N -1.3664 0.3115 -0.0034
H 1.1542 2.9398 -0.2930
N 0.5068 -0.0482 -1.3873
N 0.2143 -2.1978 -1.9056
C -2.0091 -0.6003 0.6414
H -1.6789 -1.6336 0.6988
O 0.8241 -0.1210 0.8855
C 0.2351 -1.2097 -1.1795
H 0.0480 -3.1095 -2.2042
H 2.2779 1.2368 1.0989
C 1.1865 1.2858 0.9362
H 0.6409 1.7000 1.8050
C -0.0682 -0.2036 -0.1333
O 0.9201 2.0227 -0.2080
21

H 1.6274 -0.4632 -1.3450
C 0.8512 0.2080 -0.9967
N -0.1484 -0.6283 -0.4439
O 0.8161 1.2088 1.0602
O -2.2257 -1.7064 -0.1478
H -2.2266 -2.6143 0.2330
H 1.1441 1.4169 -2.7575
H 1.9277 2.2309 -0.3882
C -0.1586 1.8655 0.3709
H 0.2875 -2.9352 -0.2293
H -1.1531 0.0891 2.1500
H -1.1140 1.4081 0.2087
O 0.3077 -1.2920 2.3143
C -0.6386 -0.7205 1.7401
H -0.2822 2.9192 0.5230
C -0.0841 -1.9658 -0.2169
H 1.0162 -1.7329 1.8974
C -1.0460 -1.2668 0.4742
H -0.5622 1.2823 -2.1987
C 1.1730 1.4971 -0.2989
C 0.4887 1.1994 -1.9489
20

C 0.6761 -1.4385 0.7976
H 0.6573 -1.7179 1.8435
H 2.0126 -0.3126 -0.6108
H -2.7503 -0.0669 0.4242
C -0.4393 0.6018 -2.1927
H 0.7248 1.6981 0.3506
O 0.2922 0.2661 3.0914
C 1.7051 -0.3577 0.4207
O 0.4946 0.8062 2.2498
H 0.7916 -2.3150 0.1832
H 2.5255 -0.3579 1.1153
C 0.6559 0.7144 0.7751
C -0.3665 -0.3171 0.3452
C -1.0841 -0.0906 -0.9818
H 0.4365 -0.0082 -2.4907
H -1.7311 1.2893 0.8473
H -1.1829 0.6179 -3.0056
H -1.6217 -0.9714 -1.3729
C -1.7284 0.3100 0.3638
H -0.0679 1.6499 -2.1533
13

O 0.7240 0.3308 1.7071
N -1.0011 1.5271 -1.3217
C -1.0160 0.2210 0.2084
C 1.4397 -0.0973 0.6823
O 0.1921 1.4728 -0.7292
N -2.0084 0.9073 -0.3002
C 0.8520 -1.4192 0.2404
N 0.2498 0.8966 0.5712
H 2.4864 0.1439 0.7022
N 1.1588 -2.2375 -0.4939
O 0.0001 -2.1292 0.6444
N -2.0169 -0.4441 0.1020
H -1.0607 0.8277 -2.0132
16

H -1.2146 -2.1138 -1.6253
C -0.3928 1.6214 0.1189
C 0.8684 1.4065 2.1528
O -1.9600 -0.4647 0.1554
H 0.9388 2.0280 3.0228
O 0.0106 -2.5090 -0.0787
H -2.2709 1.2614 0.7961
H 1.2925 -0.8299 -1.8863
N 0.5647 0.2786 1.8111
C -0.2208 -2.0650 -1.1582
H 1.0364 -2.5304 -2.4374
C -1.5474 0.6319 0.2612
H 1.7210 0.9991 0.1400
O -0.5257 2.7798 -0.0958
N 0.8306 -1.6873 -1.9388
C 0.8691 1.1934 0.7622
16

H 1.9668 1.6423 -0.4395
C -0.7677 -1.2522 -0.6838
H 0.9645 1.3735 2.0281
C 0.1211 1.0220 0.0733
C 1.5360 0.6708 -0.2855
C 0.6465 -0.0953 0.7521
H -1.7258 -0.7912 -0.8041
H -1.5404 1.9167 1.0138
H -0.1269 -2.2320 1.0797
O -0.2761 -1.9865 -1.6423
H 2.1430 -0.0265 -0.8385
H -1.0542 -2.4076 -2.0424
C -0.1241 -1.3056 0.5349
N 0.9554 0.3881 2.0013
C -1.1209 1.5263 0.1053
H -1.5973 1.5573 -0.8525
14

C -0.6215 1.3775 -0.7497
H 1.7047 0.0778 -1.3484
C -0.9355 -0.5831 0.3976
H 2.4317 1.7208 -0.6168
H -1.4984 1.4913 -1.2699
C 0.3868 0.1142 0.9458
C 0.4428 1.1792 -0.1691
H -1.9782 -0.2959 0.2810
O -0.7999 -2.0081 0.6104
O -0.6119 0.1475 1.7364
C 1.6804 0.9732 -0.7602
O -0.3289 -1.2746 -0.5870
H 1.3042 -0.1831 1.4258
H -1.1763 -2.7367 0.1040
21

H -2.4442 -1.3233 -0.7811
H -1.0797 -0.2078 -2.2008
C -1.6348 -0.8045 -0.3105
H -0.5280 -2.5589 -1.2788
H 0.4246 2.9394 -0.4054
C 0.9195 -1.1189 -0.4526
O 0.6571 -0.0179 -1.3033
C -1.0868 1.3182 -0.3820
H 2.9525 0.3271 0.4638
H 1.1995 -1.5114 1.5370
C -0.8018 0.0317 -1.1542
O 2.4305 0.0239 1.2063
O 0.2078 -2.3169 -0.6886
H 0.6951 0.8058 2.4727
H 1.9371 -1.3887 -0.7989
H -2.1627 1.3599 -0.1982
C 1.1651 -0.5261 1.0154
H -0.9785 3.2271 0.6566
O 0.2640 0.1754 1.8662
H -1.6273 -0.9478 0.7501
C -0.5088 2.5136 -0.0137
19

H -1.2229 0.5815 -2.3258
H -1.0682 -0.0057 3.3304
H 0.9169 -0.5226 -2.7729
H -1.3752 2.0461 2.0533
H 0.4132 2.2797 2.0080
C -0.2550 0.2864 -0.3127
C 1.4500 -1.3507 -0.4625
C -0.4080 1.6809 2.3080
O 0.8567 0.8208 0.0610
H -0.4645 -1.6186 -3.2480
C -0.9231 -0.2441 -1.6928
C -0.0442 -0.9343 -2.5474
H 1.7056 -2.3911 -0.5747
N 0.3456 -0.9274 0.0834
H 2.3085 -0.6902 -0.6014
H -1.8027 -0.7609 -1.3543
H 0.7094 0.1165 3.2130
H -0.9102 1.1292 -0.0716
C -0.2320 0.5044 2.9070
18

H 0.5469 -1.2251 1.9004
C 1.6005 0.0649 -0.0739
H -0.6165 1.9621 -1.0336
C -0.3303 0.9230 -0.7828
H 0.2670 1.1784 1.5320
H 1.1991 2.0773 0.3739
C -1.7173 0.3581 -0.0615
H -0.1088 0.6171 -1.8271
C 0.2603 -0.4794 -0.0702
H 2.5742 -0.4917 -1.3758
H -1.6325 -1.8570 -0.5987
C 0.0684 -1.5388 0.9451
H -2.0698 0.6061 0.9707
C -1.1358 -1.0401 -0.0784
C 0.6546 1.1174 0.5055
H 0.2307 -2.6072 0.7937
H -2.5732 0.5694 -0.7078
O 2.7825 -0.2346 -0.4113
13

O -2.2299 0.9782 1.0917
N 1.1360 -0.4515 -1.0158
H 1.2402 -2.4288 -0.1750
O 0.7364 1.7685 -0.9329
O 1.2454 -2.3069 -2.0576
H 1.1141 0.1060 0.9793
H -0.9301 2.3064 1.2645
N -1.0489 1.4324 0.7946
C 0.7507 -1.7959 -0.9564
N -0.1456 1.2864 -0.2635
H -2.3185 0.7024 1.9802
C 0.7740 0.3414 -0.0232
H -0.3238 -1.9388 -0.6860
22

O 0.6455 -0.4404 2.3502
C 0.2372 -0.4624 -1.7756
C -0.2428 0.5362 2.1462
H -0.8326 1.9098 -1.4820
C 1.5167 0.3894 -1.5702
C 0.9092 1.1791 -0.3697
H 2.2643 -0.3087 -1.1473
H -1.2924 -2.2104 1.3451
H 1.9454 0.9522 -2.4024
H -0.9686 2.2512 0.2540
H 0.0621 -1.8385 0.5401
C -1.0489 -1.6241 0.4659
H -1.9003 -0.8895 0.5084
H 0.2033 -1.2422 2.6510
C -0.5361 1.5983 -0.4864
C -0.0632 0.1983 -0.4977
H 0.1282 1.5203 2.0480
H -0.7122 -0.3112 -2.3211
H 0.6595 -1.3752 -2.2192
H -1.2837 -2.0516 -0.4957
H 1.6285 1.6600 0.2444
H -1.3192 0.5593 2.2140
19

C -0.7197 0.7882 -0.9591
C 0.8049 -1.8857 0.9604
O -2.5536 -0.9112 -1.1528
H -1.2217 1.1173 -1.8785
C -1.1963 1.5614 0.0335
H 2.1734 -1.3942 2.0684
O 1.6727 -1.1209 0.1241
O -0.5439 -1.6782 -1.5851
C 0.3853 -0.5197 0.8624
H 1.5439 0.5861 -0.7933
H -0.1950 -0.2169 1.7303
H -2.0025 1.8306 0.6486
C -1.3575 -0.8664 -1.2664
N 1.3306 -1.8464 2.2185
H 0.5209 2.5210 0.3818
H 0.2652 -2.7477 0.7022
C 0.8281 0.0029 -0.2879
H 0.3040 2.6348 -1.3486
C -0.0389 2.1449 -0.4586
19

C 0.8012 -0.7442 -0.3161
H 2.2924 0.8802 -0.0830
H 1.7907 -0.7026 2.1166
H 0.5960 1.8574 1.3966
O 2.0086 0.2508 1.9901
H -1.8925 1.6481 -0.0796
C -0.2957 -0.0256 -0.9026
H 0.9160 -1.7398 0.0475
C 0.7827 0.7915 1.4628
H -2.1851 -0.8558 0.5621
H -1.5694 -1.6463 -0.8826
C -1.4571 0.7632 -0.4557
H -0.0662 0.3074 1.8994
N 0.7919 -0.5684 -1.7150
H -2.9201 -0.5406 -1.0397
H 1.5106 -0.2355 -2.2515
C -1.9669 -0.6799 -0.5003
O -0.7696 0.9739 -1.7168
C 1.6325 0.2663 0.4678
23

N 0.3695 -2.3592 -1.2479
N -1.6620 -1.2032 0.3737
H -1.5071 1.3834 -1.2208
H 0.9449 -2.7645 -1.9463
H -0.7243 1.7631 1.6690
H 2.1611 -1.0220 -0.9978
H -1.4592 -2.1522 0.1880
H -0.0359 -0.3118 -2.0763
H 1.4808 2.8932 0.3755
H -3.5294 -0.4304 0.4023
C -1.3970 0.0590 0.5977
H 2.3682 0.2387 1.9579
C 1.4758 1.8840 0.6925
H 1.3546 -1.6339 0.3973
C -0.5786 1.1368 0.8348
C 1.2467 -1.3725 -0.6102
H 3.1641 0.6761 0.4516
C -1.7975 1.2366 -0.2059
C 2.2500 0.6698 0.9929
H -2.5904 1.8443 0.1315
N -2.6419 -0.3439 0.0951
C 0.8986 0.8923 0.5396
C 0.2088 -1.0837 -1.3943
18

H 1.9931 0.9926 -0.0449
H -1.7323 -0.5899 -0.1527
C 1.0550 1.1773 -0.5723
C -0.3416 -1.7192 1.1482
C 0.3471 -1.4674 -0.0106
C -0.7412 -0.6099 0.1929
H -1.4354 -3.1054 0.3631
H -0.9667 3.7589 -0.0661
H 1.3761 1.3701 -1.5911
C -0.3391 1.8389 -0.5377
H 0.2112 -1.7529 2.0571
C -0.0663 0.7390 0.3673
N 2.0968 -1.9112 -1.6594
C 1.3472 -1.7924 -0.8450
O -1.3106 -2.7258 1.2135
N -0.2264 3.1046 -0.0406
H -0.0818 0.9798 1.3982
H -1.1849 1.7129 -1.2200
20

C 1.9167 -0.1431 -1.3277
N -0.4583 -1.3445 1.4437
O -0.3303 1.4385 2.1361
H 0.6053 2.4210 0.4146
H -0.2914 1.9369 -2.0134
N -1.5810 -0.3363 -0.4906
N 0.4922 2.3599 -1.5728
O -2.2009 -2.5815 0.3351
H -2.7015 -2.0815 -0.2239
H 2.0159 -0.3849 1.0813
N 1.6194 -0.3844 0.1675
C 1.0194 0.4552 -0.4518
H 1.8332 0.3800 -2.2858
H 0.0922 -1.5098 2.1786
C -1.0242 -0.2591 0.7877
H -1.3281 -1.0136 -1.1241
O -1.8693 -0.8678 1.1887
O -1.0930 1.0002 1.5615
C 0.6100 1.7989 -0.4508
H 2.6738 -0.8841 -1.3539
16

C -0.6607 -0.5573 -0.9367
N -0.4379 1.6029 0.3240
C 0.7243 1.1050 0.0616
N 0.4481 -0.1762 -1.8704
H 1.2355 -1.3892 1.9255
F -1.3208 1.0191 1.1947
C 0.5375 -0.3305 -0.2089
H 1.6679 1.5817 -0.1926
H 1.0793 1.3890 -3.4015
H -1.0480 -2.1259 0.6456
C -0.6478 -1.1283 0.5622
C -0.6387 -0.1319 1.8012
C 0.5861 -0.7400 1.3564
C 0.7706 0.7113 -2.6262
H -0.7704 0.0733 2.8517
H -1.5251 -0.9031 -1.4866
14

O 3.2360 -0.5183 0.7954
N 1.1743 -0.6088 1.8609
H -1.3770 0.8327 -1.3362
C -1.6203 -1.4854 -0.8367
C -0.6641 0.8555 -0.5161
C -0.9250 -1.0200 0.3525
C 0.3269 1.8120 -0.6130
C 0.8029 -0.5660 0.7688
H -0.0375 2.8156 -0.7398
H 1.3848 1.6461 -0.6053
N -2.0879 -1.9737 -1.8364
O -1.3462 0.3231 0.6000
C 2.0754 -0.3824 0.9058
H -0.9422 -1.7305 1.2000
17

H -2.2267 2.2304 -0.4257
C 0.0717 -0.6216 -0.4585
O 1.1699 0.3169 -0.2023
O 1.0175 -2.4117 1.3763
H 0.3099 -1.5859 -0.9094
O -0.6443 0.0206 -1.6950
C 0.3919 -1.0140 1.0508
H -2.1867 0.0271 -0.2120
H 2.3496 -0.3908 1.5964
H -1.5208 3.3805 -1.6251
C -1.2936 2.5675 -0.9255
O -0.2211 2.2175 -0.6083
C 1.8446 -0.6021 0.6635
O -0.0847 -2.3744 1.2212
H -0.2143 -0.5114 1.7856
H 2.4568 -1.2038 -0.0055
C -1.2199 -0.0449 -0.6264
15

H 1.5095 0.4939 -2.4194
C -0.4433 -1.2235 -0.4781
C 1.6968 1.3170 -1.7651
O -1.5051 -0.3788 0.0215
H 0.6065 -1.1114 -0.3586
C -1.7204 -0.7379 1.2847
O 1.3212 1.0864 1.6659
H -0.6694 -1.0165 -1.5066
H -1.1210 0.9416 2.0615
C 1.1747 1.2280 -0.6521
H -2.4111 -1.5403 1.4770
H -0.6352 -2.2011 -0.1195
N -1.1924 -0.0367 2.2245
C 1.1235 1.0093 0.5571
H 2.2656 2.1699 -1.9930
20

H -0.8351 -1.6175 -2.1605
H -0.8196 1.6063 1.4054
H 1.7033 1.7118 2.0996
C 0.1527 -0.4418 1.7779
H -0.2503 -2.0263 2.2263
H 1.1774 0.0460 -1.1220
O -0.5920 0.7320 1.7676
C -1.2985 -0.3411 -0.4613
H -0.1299 0.0400 -3.1102
H -2.1215 0.2340 -0.8876
H -1.7468 -0.9539 0.3202
H 0.0230 -2.0534 -0.7379
H -0.0155 1.2619 -1.0225
C 1.5292 1.4273 1.0941
C -0.4230 -1.2128 -1.2390
N 0.3289 -1.3024 2.6176
H 0.5554 0.2471 -2.9785
C 0.1639 0.2215 -0.6832
H 2.0124 1.9644 0.3168
C 0.5860 0.4570 0.7774
16

N 0.2916 -2.2520 3.3669
C 0.5274 0.6162 -1.7082
H -1.0744 3.1044 0.0110
H 0.1787 2.8757 -1.0126
C -0.0118 0.9800 -0.6680
H 2.1216 0.2275 -0.5355
C 1.0887 -0.0217 -0.6256
N 0.7305 -2.1034 0.5327
N -1.9794 1.9998 -1.1444
N 1.7011 -2.3737 0.0526
N 0.7848 -1.3142 -0.3227
O -2.4951 1.0311 -0.7323
C -0.7042 2.3770 -0.6862
H 0.7089 0.9354 -2.6566
H -1.3594 -3.3001 3.0666
C -0.5090 -2.7820 3.0623
16

H -1.7477 -0.8335 0.3278
C 0.3143 0.6168 1.0970
C 0.1283 -0.2663 0.0404
C -1.1780 1.7586 -1.5216
H -0.9808 -1.1221 -1.2669
N -0.5914 1.5060 0.7485
O -1.0685 1.7887 -2.6268
H 2.2037 -0.5015 -0.7180
O 1.0585 0.6461 2.0459
H 2.3702 -2.2141 1.1824
N -1.1412 -0.7167 -0.4050
H 0.6974 -2.6087 0.8067
C 1.4905 -1.9170 0.7072
H -1.7681 2.7506 -0.0363
C 1.4102 -0.8452 -0.0854
N -1.1976 1.9584 -0.2957
19

H -1.9402 0.8119 1.0308
H -2.5805 0.7301 -1.5492
C 1.5785 0.3605 3.7129
H 0.1531 -1.4812 -1.6825
C -0.2375 -0.2997 0.2657
H -2.0816 -0.4215 -2.7078
C -1.7291 0.4270 -2.1377
C 0.6658 -0.9620 -0.8738
C -0.9239 0.8886 0.7032
O -0.6633 1.0743 -1.7542
H -0.6453 -1.2266 0.6625
O 1.1515 0.1412 0.3080
H 2.0737 -1.7136 0.2959
O -0.6730 0.6797 -2.8627
H 1.1800 0.4114 2.8828
O 1.2486 0.3164 -1.0281
H -0.4124 1.8304 0.7874
H 2.0107 0.2046 4.5878
N 1.8250 -1.7714 -0.6410
19

H 1.5728 1.8955 2.0183
C -1.1854 -0.9475 -1.0957
H 2.7011 2.4020 0.0803
C 0.9697 1.4959 -0.6764
H -1.0949 -2.5758 0.1106
H 0.1636 1.3747 3.0172
C -1.4627 -2.2773 -0.8645
H -0.8468 1.7625 0.3580
C 0.7774 1.2031 2.1619
N 1.9673 2.0276 -0.3038
H -2.5000 -2.5885 -0.9637
O -1.2275 -0.0524 -1.6772
O -0.8757 -2.9719 -1.9627
C 0.3734 0.1134 1.2904
H -1.0900 -2.4323 -2.7579
H 1.1314 -0.5359 0.8547
H 0.9049 1.4518 -1.7287
C 0.0505 1.1789 0.3357
H -0.3290 -0.5237 1.8034
23

N -1.8273 0.2861 1.8951
C -0.2285 -0.1732 0.9873
H 0.7986 1.8476 -1.8585
H 0.6311 -1.9531 -0.0874
H 0.0414 0.4397 -3.3367
C 0.6773 0.4891 1.8033
H -0.5068 -2.1782 1.2534
C 0.8493 0.8406 -1.4549
H 2.3855 -0.3732 0.0157
C -0.2450 -1.5896 0.4021
C 0.1665 -0.1086 -2.4154
H 0.8596 -0.9281 -2.5943
H -1.0646 -1.7114 -0.2815
C 2.1329 0.4481 -0.6348
H 1.3835 0.1062 2.5137
O -2.8368 0.6748 0.7946
H 3.0356 0.8958 -0.9978
H -1.8138 -0.0101 2.8400
C -1.5563 0.2888 0.7933
H 0.5845 1.5663 1.9191
O 1.0642 1.1609 -0.2268
H -0.7750 -0.5192 -2.0710
H -3.7561 0.5007 0.7417
18

C -1.5255 0.7296 -1.4577
H -1.6447 1.6910 -2.0205
C 0.8048 -0.5091 -0.1250
O -0.4802 1.4659 0.2389
C 1.9837 0.2207 0.1705
H 0.7567 -0.2180 2.0262
H 0.5895 -2.5105 1.9808
H -1.3652 -0.9328 -0.1155
H -2.6024 0.5193 -1.4218
H 2.9137 0.0737 0.7049
H -1.2241 2.0864 -0.0239
O 1.3251 -2.1147 1.5520
C 1.0558 -0.8226 1.1779
H 2.1483 1.0172 -0.5702
C -1.1019 0.1643 -0.0770
H -0.8118 0.2574 -2.1268
H 0.7243 -1.2970 -0.8573
H -1.5463 0.1792 0.9443
19

H -1.1345 -0.6819 -2.6167
C -0.3966 0.2268 0.5848
C -0.3794 -1.2366 0.5908
H 0.8801 1.1048 2.6624
H -1.1259 2.4837 1.2950
H -0.7722 0.8355 -1.7975
C -0.4285 -0.1506 -2.0164
H 2.1488 -0.1390 0.8092
H -0.4794 -1.6981 1.5438
C -1.0176 1.4305 1.5607
C 0.4231 0.9042 1.7018
H -1.5259 1.0902 2.4775
H 1.5445 0.1724 -2.1943
C 0.9195 -0.6755 -1.9048
H 0.8473 -1.5319 -2.5894
H 1.5751 -1.1643 -1.1663
H -0.4451 -1.8547 -0.2571
C 1.1294 0.2204 0.7547
O -1.7626 0.6640 0.5617
14

O 0.2286 -2.7125 -0.7899
N -0.4072 -0.3272 -0.0796
O -1.7371 2.5236 0.4007
H -0.3278 -3.2693 -0.2229
H 1.6146 1.6013 1.3250
C -0.5645 0.8167 -0.9890
C -1.1960 1.7615 -0.1657
C 0.7056 0.6495 -0.2675
H 1.6120 0.6909 -0.8044
H -0.8097 0.7219 -2.0121
C -0.0792 -1.0801 0.9600
C 0.0847 -1.6329 -0.2062
H 0.0263 -1.1197 1.9723
O 0.8497 1.3764 0.8795
15

C -1.5810 -0.2211 -1.3043
H 0.8992 -1.7140 0.8653
N 1.3131 1.8614 1.5690
H -2.2832 -0.8586 -1.8172
C -1.0752 -0.6939 0.0357
C -0.2454 -0.8967 -1.0262
N 0.4577 -0.9898 0.3252
H 2.1694 0.1769 -0.2658
H 1.9834 2.5382 1.4204
C 0.5738 0.9643 1.0972
H -0.4091 1.0413 1.5255
H 0.2015 -1.4100 -1.8197
H -1.7361 -0.7812 0.8558
H -1.4619 0.8211 -1.5990
C 1.1938 0.1620 0.1382
19

C 0.1651 -2.0138 -0.2798
H -0.5388 2.0283 1.3201
O 1.0448 0.2382 0.7739
H -0.3867 -2.9194 -0.2549
H 2.0458 0.5654 -3.1120
C 0.2667 0.0450 -0.2886
H -0.2187 1.1478 -1.9919
H 1.1923 -2.0851 -0.5046
O -1.6826 0.5257 1.7759
H -0.1220 -1.4806 2.0626
H 1.6902 2.0495 -0.2357
C 0.6197 0.5521 -1.6434
C 1.2596 1.1099 -0.3200
N 1.4921 0.0180 -2.4674
O -0.6301 -0.9610 -0.2256
H -2.0478 -0.2878 1.9513
H -0.6738 -1.8956 1.9889
C -1.3975 1.4649 1.0685
H -2.0782 1.8985 0.3827
14

H -2.9074 1.1437 -0.7628
H 2.2307 0.0431 1.4847
C -2.0623 1.1154 -0.0605
N -2.4117 2.1727 0.3510
H 1.2480 -1.4326 1.4515
C 0.1741 -0.4856 -0.1224
O 0.6170 -1.3500 -1.1293
C -1.3185 -0.1969 -0.0925
H 0.8197 1.5448 0.5081
C 1.3634 -0.4603 1.1036
C 0.5917 0.5424 0.5835
N 1.8786 -1.1926 -1.4596
H 1.8035 -0.2993 -1.8499
O -2.0268 -1.1449 -0.0053
22

H 0.1223 1.9147 1.8755
C 0.3138 1.0634 -0.8626
C 2.5586 -1.3665 -0.5538
C 0.4342 0.9288 1.5598
O 1.1435 -1.3686 -0.8187
H -1.8630 0.7180 1.9486
H -2.2576 1.6589 0.4468
H -1.4323 -1.2834 0.4889
H 3.3147 -0.7348 -0.1561
H 0.9053 0.3767 2.3543
C 1.4681 -1.5176 0.2594
H 2.8658 -2.1155 -1.2335
C -0.4003 0.4189 0.3525
O -2.4875 0.6522 -1.9193
H -2.0408 -1.2828 -1.8429
C -1.7827 0.7845 0.8681
H 1.0022 0.8532 -1.6812
N -1.6348 -0.4166 -0.0051
H 1.1038 -1.7602 1.1984
C -2.0735 -0.3042 -1.3672
H -0.2972 1.8650 -1.2254
N 1.0374 0.9160 0.3134
19

C 1.2505 0.7924 0.1245
O -1.2006 -0.9751 1.7668
H -1.4290 -2.0068 -2.0964
C -0.4818 0.3679 1.9561
C 1.8577 -1.1970 -0.1517
H 0.3406 -0.0940 -2.3959
H -2.1796 -0.5252 -2.7502
C 0.5489 1.4775 1.3234
N -1.4898 -1.0199 -2.2506
H 1.7092 1.5764 -0.4961
C -0.8400 -0.1996 0.7127
H -0.8156 0.6364 2.9444
C -0.3993 -0.3447 -1.6509
H 1.3055 1.6662 2.0891
C 0.0570 0.1096 -0.4659
H -0.0652 2.3210 0.9681
H 1.2352 -1.9763 0.1336
H -1.7865 -0.3920 0.2150
N 2.3829 -0.2168 0.0241
21

N -0.5290 -0.7639 1.4615
O -0.5430 -1.7712 -1.0780
H -1.7425 -0.7016 0.5217
H -2.4437 1.5029 0.4283
O 1.5274 1.3117 -0.0781
C -1.0347 0.0858 0.5966
C -1.3765 1.4233 0.4272
H 1.6283 0.0814 -1.5571
H -0.2228 -1.5626 1.8024
H 2.2554 -0.0368 1.5833
H 1.3827 -0.9998 -0.2867
C 2.3550 0.6218 0.7439
H 3.2163 1.2527 0.8678
O 0.0054 -1.3335 -2.0814
H -1.8798 -1.6482 -2.7236
H 0.2985 1.0728 2.1185
N -0.3762 0.7864 1.5050
C -1.3652 -1.1594 -1.9451
H -1.9394 -0.3227 -1.6411
H -0.8718 2.1398 -0.1958
C 1.6554 0.0210 -0.4694
15

H 0.5920 -2.3023 -0.9089
C -1.2831 -0.4913 -1.7705
N -0.4891 -0.3034 -0.6994
C 0.4823 -0.2160 0.2264
H 2.3979 -2.5227 -0.7861
C -0.4071 1.4507 1.9477
H 1.5124 2.4296 1.4639
C 0.8196 1.6667 1.5707
H -2.4446 0.8703 -0.4043
H -1.5906 -0.7825 -2.7267
O -1.3417 1.9892 2.4423
C 1.5311 -1.8511 -0.6852
C -1.6677 0.2625 -0.7706
N 0.2542 0.3791 1.4323
N 1.6345 -0.5787 -0.3318
18

N 0.9415 1.3153 -0.9837
H -0.5522 0.9954 -2.5823
C 1.6617 -0.1146 1.2430
O -1.2936 -2.4684 0.4194
H -2.6717 -1.1220 -0.2932
H 0.5079 -2.6123 0.8213
H -2.5506 0.6234 0.1823
H 1.8413 1.6006 -0.9386
H -0.7965 2.6515 -0.2094
N -0.7466 -0.4857 0.1846
C -0.2688 1.9007 -0.6702
C -0.1325 1.1882 -1.6549
O 1.9602 -1.0274 0.0191
C -2.0661 -0.3002 0.0146
O 2.7627 -0.2145 1.7925
C -0.2326 -1.8460 0.5232
H 0.9836 0.5992 1.7946
C 0.6523 -0.6831 0.3376
18

H 0.4716 2.4389 0.2742
H -0.0848 -1.9231 1.9194
C 1.2219 0.5433 -0.3685
C -0.2308 0.4241 -0.4219
H -1.5387 -0.6456 -1.8790
H 1.3259 1.4952 1.4996
C -0.8148 -0.0398 0.8621
C 0.3427 -1.8194 -0.1614
C 0.1231 -1.3535 1.0599
H 2.0487 0.2567 -0.9204
H -1.1815 0.1452 1.8393
C 0.8026 1.4617 0.5535
H -0.0648 0.0664 -2.3326
H 0.0801 -2.3631 -0.9928
N -1.5456 0.9734 -0.0528
N -0.8195 -0.0268 -1.7010
O 1.4361 -1.4777 0.4362
H -1.5721 1.8440 0.3863
16

H 0.4267 1.8293 1.4382
H -1.3523 -0.7642 0.8892
O 3.0854 1.3714 1.5117
C 1.7924 -0.5792 -0.4289
H -1.6972 -1.9887 -0.4199
O 3.2524 1.4882 0.6381
O -3.8187 -0.0430 -0.2825
N 0.4403 0.9265 1.1151
H 2.2401 0.0386 -1.2511
C -2.6032 -0.0132 -0.6577
H -2.6610 -0.0172 -1.7675
C 1.0223 0.3535 0.3938
H -1.9501 0.8379 -0.4438
O 1.0564 -1.4272 -0.9861
C -1.7958 -1.0395 -0.0158
H 2.5621 -0.9733 0.2671
15

H 1.7609 -1.5578 -0.8114
O 1.4666 0.9895 0.4582
C -0.4352 -0.2330 0.4425
O -1.4209 2.8988 0.1766
H -1.0793 -0.9604 0.9300
H 0.0330 0.0950 -1.6785
H 1.2555 -2.4228 0.7034
H 1.2881 -0.4650 1.8159
H 0.1931 -2.2135 -0.6682
C 0.9735 -1.7235 -0.0726
O -1.5574 1.1364 -1.1646
C 1.0610 -0.2538 0.7360
N -0.8609 1.0875 0.0758
N -0.6230 0.2033 -0.9214
H -2.0550 3.4192 -0.0218
13

H -2.1853 0.5859 -1.3860
C -1.5383 0.1138 -0.6615
H 1.6244 -0.5916 1.9011
N 1.2810 1.4243 0.4283
C 0.3163 0.4745 0.3274
N 1.2149 -0.3612 -0.2308
H 1.1258 2.0466 1.1760
N 1.1949 -0.1981 1.1467
H 1.7300 -0.5245 -1.0494
O -0.8947 1.1581 0.0254
H -0.6334 -2.0134 -0.7035
O -2.1421 -0.9542 -0.0778
N -1.0935 -1.1602 -0.8959
16

C 0.6488 1.3452 -0.3696
C -1.9242 -0.5980 1.5952
H 2.1021 2.7176 -0.7998
O -1.3992 -2.9446 -0.7272
H 0.8014 -2.1035 0.5530
C 0.8095 -0.0932 -0.1019
C -0.0256 0.4665 -1.2481
H 0.3295 0.4401 -2.2648
N -1.9580 0.2498 2.3532
H -1.0918 0.4863 -1.1367
H 1.8398 -0.1244 0.2213
N -2.1356 -1.6184 0.8647
C -1.1177 -1.9874 0.0025
C 1.4404 2.3391 -0.0356
C 0.1253 -1.3638 0.1700
H 1.5554 2.7888 0.9238
17

C -1.2805 -0.6547 -1.4324
H -1.7548 -0.2441 2.4675
O 1.8977 -0.6540 -0.5758
H 1.6439 0.3987 -2.2401
H 0.6605 1.3443 -1.2482
C -0.5929 1.7474 1.2440
C 1.2131 0.4225 -1.2552
C -0.8902 -0.5254 1.9754
C 0.6293 -0.3691 -0.0575
H 2.6496 -1.2658 -0.3249
H -0.5182 2.7565 1.4298
H -1.7622 0.3012 -1.5848
H -1.7167 -1.3233 -2.1330
O 1.1225 0.2554 1.2253
O -0.5259 -1.1920 -0.5183
H -0.5685 -1.5005 1.8255
C -0.2070 0.5029 1.2025
18

H 0.8849 -0.6586 2.3477
O 1.8700 -2.2567 -1.6741
H 0.2919 -1.0108 -1.8669
H 1.7849 -0.3530 -0.9218
H 1.5372 -2.4976 -0.8145
C -1.1432 1.4645 1.7085
C -0.4551 0.7320 0.7368
H -0.8071 -1.5646 0.1309
H -1.3981 2.1348 -0.7537
H -1.3990 1.0476 2.6496
O -0.9216 0.3944 -0.7482
H 1.6671 -0.4975 -2.6868
N 0.5563 1.2530 1.4108
C -0.5389 -0.5616 0.2917
C 0.3884 -0.2057 1.5395
H -1.8081 2.2166 1.3843
C 1.3635 -0.9329 -1.7347
N -1.8733 1.2962 -0.9993
20

C 0.8381 -0.6672 -1.5923
H -1.1294 0.5873 -0.6443
H -0.0881 1.1187 2.4509
H -2.8113 2.2048 1.7193
C 0.8013 -0.6692 -0.0780
H 1.5757 -1.0853 0.5569
C -1.0416 1.3603 1.7364
H 2.2662 -1.5218 -2.4765
H -2.2251 -0.7096 1.5018
N 2.1407 -0.5592 -2.0989
C -0.5003 -1.4450 -0.0216
N -0.0526 0.8098 1.2965
H 1.0233 1.4800 -1.5265
H -0.5158 -2.4994 -0.1710
C 1.4819 0.5519 -1.1307
H 2.3097 0.9244 -0.5178
O -1.9835 2.0144 2.1859
H 0.0047 -0.9883 -2.2033
C -0.6230 0.0071 0.1116
N -1.4709 -0.9137 0.9016
19

H -1.0323 2.0515 1.0384
H -2.2502 0.9872 0.4625
C -1.1817 1.0351 0.6436
C -1.3546 -1.0372 -0.4948
O -0.6674 0.2040 1.7135
H -0.7336 0.7868 -1.4942
N 2.1506 -2.5812 -0.7572
H -2.4184 -0.8268 -0.6936
H 1.7284 1.9454 0.5931
C 0.8532 -0.4024 -0.1322
O 1.0345 2.4267 0.3924
C 0.5329 -0.3211 1.3193
H -0.9891 -1.7726 -1.2171
H 2.1418 0.7810 -1.6001
C 1.6179 -1.5806 -0.5848
C 1.2690 0.3546 -1.1287
H 1.1960 -0.6814 2.0803
C -0.5117 0.2215 -0.5998
H -1.3854 -1.5904 0.4594
19

H 0.6600 -2.1279 0.5121
H -3.2896 -1.0815 0.3538
H 0.6273 2.4839 -0.9930
N -1.3951 -1.0325 -0.7681
C 1.6818 1.5047 0.0032
O 0.8882 2.5466 -0.0459
C -0.3481 -0.1982 -0.2429
C 0.2142 -0.1654 1.1171
C -2.2752 -0.6907 0.3927
H 2.5736 -1.1223 -1.0434
H -1.8579 -1.1055 -1.6313
H 2.3488 1.4771 0.8372
C 1.8207 -0.4307 -0.7421
N 1.9276 0.7906 -1.0701
H -0.4187 0.7685 -0.6646
H -1.8670 -1.2602 1.2354
H 0.3554 0.3342 2.0350
H -2.4323 0.4001 0.4951
C 0.7863 -1.0908 0.2198
19

H 1.4731 -1.9686 2.2960
H -1.2043 2.1584 0.1537
H -1.1823 0.0937 2.0657
H -0.7420 2.7094 -1.5137
C -0.0910 -0.0871 0.2363
H -1.2615 -1.3720 -0.9575
H 1.3959 1.4170 -0.1813
C 1.7728 -1.4805 1.3811
H 2.8473 -1.4290 1.2451
C -1.0554 -0.3190 -0.8723
H 1.2928 -1.5055 -0.6797
C -0.5641 2.0334 -0.7048
C 1.0148 -1.1425 0.3096
C -0.5570 -0.6276 1.5435
H 0.8686 0.7701 -1.7501
H -1.9234 1.0281 -2.2018
O -2.0099 0.2406 -1.6990
H -0.5932 -1.5672 2.0675
C 0.5189 1.0484 -0.7385
17

O 1.8378 -1.1209 -1.0613
N -0.9077 2.0840 1.1550
N 1.3335 1.9202 0.1244
N -0.1186 -2.1510 -0.2282
C 0.3057 1.7278 0.8993
C 0.7325 -1.1803 -0.7259
H -1.5162 1.6152 0.5015
C -0.6872 -1.0233 -0.3198
C 1.4885 1.2697 1.4948
O -1.6420 -0.6496 0.5704
H 2.4467 0.7498 1.4750
H -2.2794 -1.3908 0.3630
H -0.7543 -2.4771 -2.1367
H 1.0659 1.6569 -0.8394
H 1.2711 1.3557 2.5792
C -0.9863 -1.5521 -1.6534
H -1.5899 -0.8340 -2.1978
16

C -0.9231 1.1091 -0.1314
H -0.7309 2.9301 1.3027
C -1.7382 -0.0672 0.6269
H 0.3239 -2.8797 -0.8854
H 1.4402 1.6516 0.2893
N 0.4070 -2.2432 -0.1008
C 1.4657 -1.4997 -0.3973
H 1.4782 -0.5015 -0.1265
C -0.5301 2.1578 0.6140
H 2.3566 -1.8983 -0.8071
C 0.4966 1.7166 -0.3008
N -1.6278 -0.4305 1.7308
H -2.4592 -0.5187 -0.0618
O 0.8236 1.8627 -1.5316
H -1.4251 1.1747 -1.0709
H 0.6428 -2.5639 0.8498
17

H 1.0079 -2.1875 0.6216
H 0.7757 2.1591 -1.4406
H -0.8258 -0.7369 1.8645
C 0.7409 1.0612 0.4060
C -0.7938 -0.7249 -0.3290
H -1.4890 -0.6514 -1.1277
O 1.3217 -0.0013 1.1183
H 0.9239 0.5128 -1.9179
H -0.2865 -2.6522 -0.4577
C 0.5944 -0.3110 -0.0723
H 2.2310 1.2261 -0.9697
H -2.2626 1.0700 0.4036
C 0.2272 -1.8084 -0.0193
O -2.4070 0.3675 1.0334
H 0.3929 1.8675 1.0032
C 1.1502 1.1930 -1.0998
C -1.3011 -0.3836 0.9834
18

H 0.3306 1.6676 -1.2792
H -1.9000 -1.3815 0.3972
N 2.8907 -2.5203 1.7736
C 0.1513 1.1235 -0.3601
C -0.4479 -0.3828 -0.8698
H 1.0880 -2.1227 -0.8468
C 0.8597 -1.1510 -0.4424
H -0.6896 3.0055 0.4010
N 1.2952 0.2168 -0.0930
O -1.8963 0.2626 -0.9479
H -0.4641 -0.8712 -1.8550
H -1.3174 0.0477 1.1791
N 1.4363 -0.7932 0.7718
H 0.0890 1.9109 1.4566
C -1.4353 -0.4383 0.2347
H -1.9805 1.0949 -1.4090
C 2.2034 -1.8230 1.3402
N -0.2130 2.1544 0.5489
16

H 0.4501 -1.9953 3.0949
C -1.2582 2.0744 -2.2086
C 0.2934 -1.1047 2.5592
H 2.2990 -1.6795 1.0189
H 0.0853 -0.1882 3.0336
O -1.3952 0.8951 -2.5879
N -0.2727 0.8814 -0.0153
H -0.3200 2.6104 -1.9886
C 0.0733 0.1247 -0.9937
C 1.2952 -1.7212 0.6776
O -1.0063 -0.1740 -0.4543
N 0.2864 -1.3220 1.3054
H 0.7604 -0.2496 -1.6712
H -0.1973 1.3046 0.8177
H 1.1627 -2.1850 -0.2687
O -2.2560 2.7291 -2.3191
21

C -1.0755 0.5399 2.2343
C 0.1039 -0.6341 -1.5163
C -0.3407 2.2861 0.2021
H 0.1554 2.4471 -0.7208
H -0.4274 0.9016 3.0424
H -0.1826 -2.6105 -0.6806
C 0.2879 -0.2182 0.5186
H 0.3465 -2.6138 -2.3549
C 1.4924 -1.0315 -1.2839
C -0.3328 1.0247 0.9506
H -1.9703 0.2011 2.7430
H -1.1995 2.8845 0.4558
C 0.2299 -2.0018 -1.4826
N 1.4602 0.0613 -0.2624
H -2.0983 0.2757 0.2289
O 0.6595 1.9282 1.1611
H -0.4183 0.1238 -1.9907
N -1.3533 0.0251 0.8401
H 1.9780 -0.6901 -2.2232
H 0.4505 -1.1402 1.0438
H 2.2341 -1.7589 -0.9054
17

H 0.3466 2.0333 -0.3671
C -0.2335 0.8458 1.7904
H -1.0956 1.3927 1.4144
O -0.4573 -0.5383 1.5501
H 1.8187 0.7345 0.8982
H -0.2269 1.2214 2.8109
H 0.2259 -2.2286 -1.9741
C 0.3361 -1.8346 -0.9607
N 1.0774 1.0060 1.4365
N -0.0568 1.4117 -0.9905
H -0.8125 1.7290 -1.5536
H 1.3931 -1.8166 -0.6934
C -0.0305 -0.1602 -1.0270
H -0.0902 -2.6277 -0.3154
H 0.3331 -0.0588 -2.0416
H -1.7997 -0.6094 -0.0881
C -0.7280 -0.5003 0.1109
25

C 0.6504 -1.0673 -4.2833
H -0.9881 1.0528 5.0720
C -0.7581 -0.4288 -1.5596
H 1.5435 -0.7327 -0.2353
C -1.2200 1.2664 4.0121
H 0.8877 0.7913 0.2919
C 0.0764 0.8750 3.4220
H 1.0146 1.3117 3.7188
H 1.0091 -0.8772 2.5663
H -0.2264 -1.4720 -3.8040
C 0.5007 0.1160 -1.9350
H 1.5401 -1.6856 -4.4378
H 1.6074 0.6707 -3.8177
C 0.1444 -0.2214 2.5938
H -1.4951 2.2856 3.7722
O 1.4067 1.0406 -1.5958
C 0.9331 0.0030 -3.3747
H -0.8291 -0.8376 0.7791
C 1.0949 0.2095 -0.5816
C -0.8915 -0.4979 1.7526
H -1.8684 -0.5386 2.1607
H 0.4907 -0.7068 -5.3120
H -0.7756 -1.4275 -1.1847
H -1.7174 0.0587 -1.6569
H -2.1300 0.8122 3.6368
16

H -0.3404 1.7979 -0.7647
O -0.5465 -1.5377 2.1411
O 2.2068 -0.4968 -0.1361
O 1.9213 1.7385 -0.4267
H 1.8843 1.4377 -1.3394
C 0.1973 0.3345 0.9383
H 2.6693 -0.9113 -0.8240
C -1.6051 0.1639 -0.6166
H -2.3579 0.5231 -1.2754
N -0.7413 -0.7263 1.3356
H 0.4197 0.9647 1.7814
H -0.7845 -1.6863 -0.6250
C -1.4173 -1.0904 0.0337
C -0.2878 0.7894 -0.4227
H -2.3368 -1.5730 0.3612
C 1.1189 0.2720 -0.1606
23

C 1.8877 -1.0515 0.1422
N -2.0796 1.1379 -1.0579
H 2.9344 -0.7652 0.0039
H -0.9244 1.2104 1.4108
C -2.7636 0.5549 -0.1335
C -0.4424 -0.7893 1.2259
H -2.0773 0.5354 -1.8720
C -0.0190 0.6837 1.1499
C 0.9822 -0.4356 1.2039
H -0.8141 -1.4713 0.4654
H -2.6412 -0.2395 0.5993
H 1.0646 1.3330 -1.1377
C 1.2760 -0.7601 -1.2107
O -0.0820 -0.7375 -1.3238
C 0.5368 0.4848 -1.5921
H 1.8340 -1.1653 -2.0357
H 1.5091 -0.3591 2.1427
H 1.7613 1.3781 0.9920
H 1.8245 -2.1009 0.4302
O 0.9024 1.8286 1.0312
H -3.7860 0.8624 -0.0946
H 0.0766 0.8924 -2.4797
H -0.9600 -1.0264 2.1403
20

H -0.1257 1.6676 -1.7709
H -0.8424 -2.4563 -1.4299
C -0.5094 1.4284 -0.7746
H -2.9223 -0.6013 -0.2112
H -0.3430 1.4830 1.4630
H -1.5289 1.7580 -0.6502
C -2.2103 -0.7044 0.6278
N 0.7287 -0.7773 -1.1804
C -0.0875 -0.0622 -0.1670
O 1.5884 -1.5785 -0.4470
H 2.3396 1.8036 0.9307
C 1.3171 0.5060 -0.4409
O -2.6041 -0.6475 1.7711
H 2.0890 0.7759 -1.1590
C 0.2003 1.1832 0.5725
H 1.8828 0.3658 1.8725
H 1.3932 -1.5487 0.5202
O -0.9790 -2.3707 -0.4872
C -1.0595 -1.1724 -0.0267
C 1.6729 0.9476 0.9874
19

C -1.1109 -1.8400 -0.1338
C 0.3017 2.0120 0.8114
H -2.0804 -1.8956 0.3605
C 0.6437 1.1100 -0.2785
H -1.4602 0.3206 -0.7075
H -0.2642 2.8368 0.4288
C 0.6563 0.0803 0.7443
C -0.8495 -0.5353 -0.6288
C 0.1435 -0.0468 2.0518
N 1.7552 2.1344 -2.2080
H 0.4627 -0.6017 2.8776
C 1.1566 1.6279 -1.3577
C -0.3680 -1.4998 -1.5015
H -0.8989 -2.1220 -2.2064
O -0.5455 0.9528 1.5447
H -0.6291 -2.7722 0.1689
H 0.5754 -1.2440 -1.9698
O 1.4538 -0.8777 0.5114
H 1.0577 2.3603 1.4925
17

C 0.5307 0.4170 -0.4696
C -1.9133 -1.0494 -0.0019
H 0.0991 -1.8227 -2.0948
H 0.5361 1.9452 1.2418
N 0.9406 1.6205 -0.7562
H 1.9295 1.6858 -0.8083
C -0.0046 1.2928 0.5578
H -2.0757 -1.7670 -0.7729
C 0.6902 -1.0505 -1.6613
H -0.9348 0.7984 2.4447
N 1.0132 -0.7979 -0.3856
H 1.3890 -0.6353 -2.3618
C -0.7047 0.1513 1.6093
H -0.2683 -0.7411 2.0959
H -0.9367 1.8213 0.3516
N -1.8276 -0.3734 0.9338
H 1.5373 -1.4950 0.0777
23

H 3.1247 0.2923 0.7613
H -0.5057 -2.6275 -0.3087
C -2.1488 0.4715 -0.8623
C 1.0304 0.5567 1.7448
C -0.8323 0.9994 -1.1263
H -1.5875 1.0412 1.1679
C 0.9879 -0.2394 0.4341
H 1.9519 -1.9020 0.3070
C 2.1091 0.5318 0.6765
H -0.9141 0.7876 -2.1833
H -1.2177 -1.6725 -1.1455
H -1.1162 -2.0957 0.9967
H -2.1481 -1.3791 0.0924
H 0.5195 0.0206 2.5279
H -2.8108 0.0223 -1.4952
H 2.0635 0.8212 -1.4744
C -1.2241 -1.8730 -0.0713
C 0.3443 1.8016 -0.9982
H 0.2111 2.7728 -1.3964
C 1.3727 0.8055 -0.6334
O 1.1573 -1.5887 0.7128
C -1.5313 0.9056 0.1332
H 1.1643 1.5479 2.1404
14

H 0.0880 0.8448 -2.0737
C -1.2129 -1.2412 0.5290
H -1.0669 -1.2083 1.6217
O 1.0257 2.4252 0.3434
C 0.3693 0.7158 -1.0739
H -0.0297 -1.8799 -1.4442
C -0.0610 -0.3104 0.0047
H -2.1234 -0.7161 0.2128
C 0.9761 0.3035 0.7143
H 1.5914 0.0297 1.5059
H 0.8975 3.3262 0.3808
H -1.4098 -2.3244 0.3648
N 1.2971 1.2710 -0.2894
N -0.3415 -1.2361 -0.7964
20

C -1.0023 0.9852 -0.5264
H -1.3141 0.6712 1.5286
H -0.8122 -1.5491 2.3660
H 1.7175 1.8117 -1.5121
N -0.5358 -0.4251 -0.7564
C 0.8621 1.1453 -1.4630
H 2.9661 -0.3976 0.4914
H 0.2472 1.3134 -2.3478
H -1.4648 -2.1640 0.0377
H 1.9383 0.7957 1.2263
C 2.0422 0.1240 0.3833
H -1.7586 1.1361 -1.3123
C -1.6171 -1.0816 -0.0191
H 1.3278 -1.0956 -1.1314
H -0.9095 2.0142 -0.1672
C 1.1853 -0.0655 -0.7541
C -0.1783 -1.0232 1.6894
H 0.8373 -1.3278 1.7122
H -2.6842 -0.8822 -0.1970
C -0.8468 0.0150 0.7517
16

H -0.8371 0.3733 1.9979
C 1.3060 0.0426 -0.4165
O -2.9498 0.3299 -0.2069
C -0.1237 0.3349 0.0251
H 2.0141 0.8254 -0.4244
C -0.2247 -0.1352 1.3188
H 0.4190 -0.8329 1.7665
H 0.4738 -1.2598 -2.1429
O -0.9425 0.4654 -1.1160
C -1.6121 2.1722 0.2228
C 1.5134 -1.4692 -0.0972
H 0.8956 -2.2261 0.3114
C -1.8557 0.8364 -0.1588
C 0.8608 -0.9733 -1.2316
H 2.5388 -1.7089 -0.0456
N -1.4759 3.2252 0.1975
14

N 0.5964 1.3029 0.3508
H -0.7933 -2.1766 -1.1629
H -1.5529 1.9732 0.9443
C -0.6989 1.4735 0.7300
H -1.5450 -0.4694 1.5484
H 1.0864 -1.0470 -2.3596
C 0.9928 -0.3600 -0.7746
C 0.9946 -0.0878 0.5232
O 1.6822 -0.6326 -1.7549
H 1.3987 -0.4543 1.3814
C -0.3365 -0.4397 -0.1689
N -0.9431 -1.4989 -0.5722
N -1.2208 0.0029 0.7850
N 0.3394 2.4138 0.5301
19

C 0.7393 0.9803 1.3232
C 0.3957 -0.6865 1.1519
H -0.4397 -1.0734 1.6310
H -0.2400 1.1326 1.7953
O -1.9274 1.9285 -0.8701
H 1.0378 -2.5784 0.8164
C -0.4440 -1.2332 -1.2825
H 1.6029 1.0400 1.9883
H 0.0746 1.7184 -1.1993
N -1.0546 -0.1631 -0.5393
H 1.8990 0.0147 -0.3507
H -0.9406 -2.1674 -1.1606
C -0.7469 1.0653 -1.0170
O -2.8560 1.3968 -0.6100
H 0.8265 2.0031 0.9351
H 0.5289 -1.3888 -1.7154
C 1.2325 -0.2055 0.4270
N 1.3615 -1.7332 0.5326
N -1.0495 -0.0504 -1.8560
18

H 0.3183 2.9265 0.3193
C 0.2451 0.8985 0.7427
C -0.5523 -1.7940 -1.9191
H 1.0986 -2.3598 0.1307
H 1.6169 2.6450 1.4585
C -0.1262 -0.9822 -0.9286
C -1.0252 0.2219 -0.6889
H -0.3292 -1.8286 1.0190
H -0.8103 0.9569 -1.4809
H 2.0106 -0.0461 1.5145
C 1.0806 -0.1751 0.9345
C 0.4644 -1.4683 0.3270
H -1.0294 -2.7297 -1.6384
H 0.0866 2.3181 2.1743
H -0.4934 -1.5041 -2.9577
H -2.0179 -0.2331 -0.7680
C 0.6154 2.2758 1.1878
O -1.1525 0.8783 0.5734
17

H -0.9583 -2.0972 1.0561
H -0.3954 2.5024 -1.6468
H 1.6140 1.6786 0.1493
C 1.2462 -1.1227 -0.8523
C -0.1574 -0.5676 -1.0087
N 0.6958 1.4770 -0.0728
O 1.0702 -2.0805 0.1411
O 2.2376 -1.0596 -1.4795
N -0.4165 0.7275 -0.6202
O -1.0156 0.3641 1.5149
H -0.7858 -1.2342 -1.5540
H -0.9932 2.7365 0.0910
C -0.3079 -0.2496 0.4684
H -1.9433 0.0606 1.3966
C 0.0285 -1.6245 1.0303
H 0.5060 -1.6599 2.0096
C -0.4251 2.1493 -0.6231
12

N -0.3881 1.3728 -1.4946
N 0.5990 -1.0646 1.1017
N 0.3514 -1.7630 -2.2212
C -0.3196 -1.2504 -1.5801
H 0.5287 -1.9181 0.7735
O -1.1480 1.5172 -0.4966
N -0.3730 0.1388 2.8899
C 0.7008 0.2260 0.7470
C 0.1668 -0.0480 1.8220
H 0.7919 2.2802 -0.1878
H -1.0872 -0.9809 -0.9784
C 0.1773 1.4899 -0.3754
20

C -0.1241 -1.8224 0.5169
C 1.0637 0.3248 1.4117
C 1.3811 1.0878 0.2301
H -1.1430 1.9297 -1.5258
H -0.6053 -1.7035 1.4530
H -0.1505 1.0331 -2.2982
H 1.9377 1.7856 -0.3315
H 0.6080 -0.1098 2.2558
C 0.1506 -0.6756 -0.2978
H -1.5066 0.6521 1.0896
H -2.2031 -1.6759 -0.3900
N -0.1597 1.7336 -1.5517
H 0.1048 -2.7924 0.1771
C -1.0758 0.1476 0.2190
H 3.3115 0.4233 1.0171
C -2.0051 -0.6450 -0.5325
C 0.0386 0.9069 -0.4146
H 0.8397 -0.9172 -1.0778
C 2.2869 0.4538 1.1404
H -2.7494 -0.1366 -1.0909
19

H 0.4425 -0.7273 -2.6976
C -0.5619 -1.0139 -2.3413
H 1.8108 1.2352 -0.5528
C 0.1199 0.0246 -0.1901
H -1.9697 -1.6825 -0.2007
H 0.0515 -0.1728 2.4238
O -0.2356 1.0243 2.4238
C -1.0004 -0.1002 -1.2554
H 0.1355 1.9420 -0.8907
H 1.1376 0.4390 3.8308
H 0.4597 -0.7941 0.4623
H -0.6601 -2.4851 -0.8774
C 0.7684 1.3679 -0.1872
H 0.8254 2.0899 0.6510
H -1.1169 -1.4540 -3.1743
C 0.9448 0.5405 2.8073
C -1.2154 -1.5457 -0.9984
H 1.8465 0.6807 2.2848
H -1.7826 0.6314 -1.5181
15

H 0.2888 -0.6686 1.7332
N 1.3304 1.0086 0.6575
H 2.0022 -0.1551 1.9903
C 1.0671 0.1668 -0.5582
O -1.5580 0.6765 -0.2223
C -2.1733 -1.3651 -1.4942
C 0.9348 0.2509 1.7974
N -2.7593 -2.3130 -1.6201
C -0.4323 0.2604 -0.6053
O 0.2028 1.4523 1.3334
C -1.4459 -0.1401 -1.4502
H -1.4317 0.2339 -2.4665
H 1.3470 0.6477 -1.5033
H 0.8375 0.5956 2.8576
H 1.7900 -0.6506 -0.4492
19

C -0.0242 0.7300 0.8690
C 0.9282 -0.0341 0.3025
H -1.8563 1.2514 1.7367
H -2.4191 -1.9812 -2.0975
C -1.3875 -1.2150 -0.8209
C 0.6467 -0.9106 -0.7061
C -1.1371 1.4131 0.9636
H 0.6766 -1.1999 -1.7106
O -1.5461 -1.5667 -2.0792
H -1.2648 -1.9604 -0.0613
H 2.2039 -1.9629 0.2448
O -0.9325 2.5410 0.1601
H -2.1784 -0.5419 -0.6109
C 1.9920 -0.9226 0.1449
H 1.9726 1.8477 0.5842
H 2.8891 -0.3946 0.4860
C 1.2545 1.2652 1.1183
H -1.0276 2.0258 -0.6526
H 1.2101 1.6157 2.1291
24

C 1.3860 0.1649 -0.0380
H 1.3230 -1.7246 1.8961
C 2.4316 0.4672 0.8585
H 0.3509 -2.7086 0.8439
H -3.5747 0.2325 -0.9352
C 0.4320 1.2217 -0.5171
O -1.6453 0.6405 -1.5379
C -1.5534 -0.7282 -1.3902
C -2.1436 0.3479 0.7122
H -0.9179 -0.9264 1.7828
H -0.6590 -1.2395 -1.0791
C 1.6719 0.9642 -1.1418
H 2.3296 0.1190 1.8344
H -2.6022 1.0280 1.3349
C -0.9659 -0.2686 0.9801
H 3.2130 1.0414 0.5092
C 1.1729 -2.1396 0.9781
H 2.3375 1.3422 -1.7909
O -0.3542 2.3067 -0.5836
H 0.3031 3.0017 -0.6777
H -1.9597 -1.3661 -2.1413
H 1.9000 -2.1776 0.2653
N 0.0928 0.3084 0.4957
C -2.5686 0.0933 -0.6586
15

H -0.2892 -1.2785 3.1109
H -1.8818 1.2986 -0.1807
O -0.6197 -1.6859 1.1570
H -1.9795 0.1644 -1.4706
H 1.6708 1.3808 -0.0989
N -0.6716 -1.0650 0.0163
N 0.1120 0.5870 -2.4257
C 0.0980 1.0994 -1.1390
N 1.1826 1.8435 -0.7785
H 2.1541 -1.1128 1.9776
N 1.2993 -0.9102 2.2045
C -0.2875 0.0416 -0.3894
C 0.1560 -1.3299 2.1578
O 0.4898 0.2619 -3.3081
N -1.4335 0.7051 -0.8334
19

C -0.3539 0.8568 0.8413
H -0.9144 -1.1341 -2.0549
C 1.3397 -1.1595 0.5180
N 1.1076 1.3602 0.9519
N 1.4360 -1.8337 1.6830
C -1.4251 1.2739 -0.2773
H -2.2140 1.7726 0.2674
H -0.7313 0.5323 -2.4803
H -1.0073 2.0343 -0.9059
O 2.1107 1.4503 0.3750
H -0.8251 0.8011 1.7894
C -1.1189 -0.1311 -1.7328
H -2.6824 -0.5950 -0.3067
C -2.0030 0.0593 -0.7997
H 1.0270 -1.3097 2.4062
C 0.6500 0.1107 0.5577
H 2.3449 -1.0412 1.0562
H 1.9487 -1.2595 -1.2026
O 1.3110 -1.7874 -0.6860
13

H -0.9781 -3.0492 -2.0751
H -0.4114 -0.4448 0.9804
C -0.0402 0.5426 0.9565
N -0.2305 1.0652 -0.4065
H 0.5277 1.7155 -0.6623
H -1.0766 1.5782 -0.5930
N 0.8159 -1.0078 -1.3089
C -0.0953 -0.2547 -1.0384
C -0.3681 -1.6048 -1.1575
C 1.0162 1.3030 1.7877
N -0.0509 0.9282 2.2269
N -0.9725 -2.7130 -1.0958
O 1.8638 1.9415 2.3860
20

H 2.3283 1.3518 -1.5056
H 1.3941 -2.7986 0.1314
H 2.5194 -0.7007 -0.3578
H -0.0675 -2.1018 -0.5953
C -2.2549 0.1065 -0.1202
H 0.5944 -0.1422 -1.7319
C 0.8737 -1.9282 -0.1340
H -0.6182 -0.5353 2.3596
C 1.5194 1.4230 -0.8108
H -2.6478 1.0648 1.5564
C -0.9161 -0.0034 1.4784
C -0.9667 0.7249 -0.6150
H -1.2970 1.4318 -1.3734
N -2.2566 0.1855 1.2180
H 1.4117 2.3145 -0.2164
C 0.5717 0.3189 -0.7158
C 1.5608 -0.7467 0.1483
H 1.6953 -0.6107 1.2283
H -3.1366 -0.2319 -0.5917
N -0.3075 0.8779 0.6477
12

H -1.4525 1.8162 1.4631
C 0.2756 -1.1748 -0.5861
H 0.3851 2.6266 -0.5684
H 0.3232 1.8599 1.1881
C 0.5938 -0.5955 -1.7009
O -0.4923 -0.9241 1.6789
N -0.0617 2.0962 -0.0452
N 0.0221 -2.5168 -0.2660
N 0.1940 -3.6323 -0.1750
C -0.0580 -1.0369 0.6662
N -0.7465 1.9004 0.9277
H 1.0171 -0.4188 -2.5824
13

C -0.2990 -0.3085 0.4945
O -0.0829 0.2264 -2.0424
H 1.3876 -1.7576 1.0860
O 0.9510 0.1354 1.0367
O 0.1399 1.6820 1.6064
H 0.9798 -1.4694 -1.4094
H -1.1794 -0.5570 1.0434
N 0.7129 -1.1070 0.9008
N -0.9164 1.8312 1.5725
N 0.8622 -0.5541 -1.6283
H -0.4794 0.6168 -2.7822
N -0.3975 -0.2538 -0.8920
H -1.6790 1.5157 1.0140
17

H -1.2137 1.2779 2.0469
O 1.8437 0.1696 0.5435
N 1.3414 0.4166 -1.7128
H -0.0897 -0.6601 -2.6312
H -1.2428 2.1783 0.5372
C -1.1336 1.1977 0.9710
H -1.8314 0.3429 -0.9464
C -0.1797 0.1415 0.5860
C 0.9206 -0.4411 1.4573
H 0.7109 -1.5330 1.5019
H 1.2612 -0.1160 2.4470
C -1.5666 0.0739 0.0591
H -2.1668 -0.7333 0.4738
C 0.3222 -0.7230 -1.6317
H -0.0225 -1.7193 -1.3068
H 2.2619 0.0895 -1.8886
C 0.7850 0.0381 -0.5063
16

C -0.2190 1.1569 -0.6700
C 1.3013 -1.6752 1.5794
H 2.1362 -2.2423 1.1461
C -0.7048 -0.9096 0.7231
C -0.1941 0.3775 0.5754
H -2.0726 0.9703 -1.6148
O 0.0238 2.4337 -0.5478
H 1.7273 -0.6871 1.7518
C -1.0298 0.7422 -1.7823
H -1.7080 -1.1061 1.0887
N -0.1332 1.9393 -1.9033
H 0.4160 2.0530 -2.7260
O 0.1127 0.9731 1.5565
H -0.8717 -0.1055 -2.4228
H 1.0029 -2.0243 2.5773
N 0.2129 -1.8960 0.6686
21

H 0.9379 3.1653 -0.8449
C 0.3300 -0.2295 -1.0288
C 0.8566 2.1670 -0.3755
H -1.7284 -1.3079 1.0986
H -0.3989 1.2671 1.7064
C -1.9293 -0.7793 -1.0171
N 1.9949 -0.8854 2.2974
C 1.4009 -1.1310 1.1723
N -0.5985 1.7346 -0.3226
C 0.2361 1.1767 -1.4052
C -0.2896 0.9039 0.6912
H -0.7191 -2.5528 0.4602
H 1.6143 2.0744 0.4379
H 1.7162 -2.0721 0.6717
H 3.0265 -0.7669 2.2051
C 0.2467 -0.5088 0.3754
H -2.1792 -0.6365 -2.1234
H -2.7993 -0.2088 -0.6088
N -0.7129 -1.3920 -1.2047
H 0.0310 1.4921 -2.4358
C -1.0358 -1.5101 0.2504
16

O -0.3194 -2.5957 -1.1230
O 1.3110 -0.0532 -1.6798
C 1.4629 1.1369 -0.9212
H 0.3706 -1.4223 0.3968
H -1.0701 -0.9022 -0.4635
N -0.0846 0.6655 0.9546
H 0.0447 -3.3465 -0.7061
C -0.7070 0.7350 2.2109
H -0.3151 1.5093 2.8595
O -1.2933 1.1383 0.9927
H 2.2938 1.7400 -0.8475
C 0.2781 1.1672 -0.2395
H -1.3127 0.0633 2.7883
C -0.3031 -1.5863 -0.3819
C 0.2261 0.7850 -1.5989
H -0.5821 0.9656 -2.2413
16

H 1.0493 0.5717 1.9864
O -1.6853 -1.2874 -2.2924
C -0.9620 0.5555 0.6530
O 0.0004 2.9148 0.2199
C 1.9682 -0.8077 -0.4642
O -0.8371 -0.5074 1.4779
H -1.4769 0.5372 -1.5658
H 2.5931 -0.5263 0.3736
H 2.6089 -1.1760 -1.2413
C -0.0860 1.7684 0.5579
N 0.7399 -0.8761 -0.4746
C -1.3023 -0.5301 -1.4912
H -0.7297 -1.8810 0.1880
H -1.9870 0.9402 0.7190
N 0.6513 1.1126 1.3254
C -0.5448 -0.8084 0.0284
18

C 1.7354 -0.5900 -0.1620
C -0.3662 0.0634 0.7298
H 2.5447 -0.0963 0.2334
H -2.1582 0.0740 -0.5603
C 0.2646 -2.0594 -0.9970
O -0.0501 -3.1279 -1.1054
N -1.1083 -1.1427 0.8436
H -1.1123 -1.8105 1.5557
H -0.6990 2.5792 0.4369
C 0.2679 2.1142 0.2851
H 0.3842 1.8652 -0.7604
H 1.4692 -0.6879 -2.3213
H 1.0002 2.8398 0.5971
H -2.3873 0.6284 1.1319
C 1.1779 -0.9592 -1.3650
C 0.3527 -0.8361 -0.1831
O 0.4571 1.0329 1.2063
C -1.7725 0.1128 0.4348
13

C -0.5772 0.3657 0.4724
H 0.8194 -0.3398 -2.3037
C -1.3826 -0.8620 0.5619
O 1.6095 -1.4281 -0.8153
H 0.7688 1.8069 -0.8321
H -2.3360 -1.7861 1.8864
C 0.7977 -0.6878 -1.2523
N -0.3679 -0.6914 -0.4481
C 1.2627 1.4520 0.0460
O 0.7173 0.7325 1.0141
H -1.2043 1.2472 0.6408
H 2.2708 1.8133 0.1552
N -2.3780 -1.6224 0.8749
16

C -1.5456 0.8562 -0.1397
N -1.4487 1.9463 0.5146
H -2.2019 2.5704 0.7419
H 1.9250 0.8580 1.0568
C 1.1453 -0.9543 0.1892
C -0.1075 -0.3185 -1.8645
C 1.5772 -0.1029 1.3955
H -0.5679 -1.1457 1.7371
C -0.5202 -0.1384 -0.5228
C 0.2676 -0.7458 1.2106
H 2.0203 -1.2841 -0.3517
H 2.0710 -0.3094 2.3248
N -0.0582 -1.4056 -0.8495
H 0.4254 0.5918 -2.1898
H -0.4702 -0.8662 -2.7475
H -2.5115 0.4483 -0.5050
16

H -0.8147 2.9943 -0.7009
C 0.6453 -1.4211 0.3173
O 1.4721 -2.3200 -0.0332
C -0.7468 1.9313 -0.4955
H -1.5895 1.7145 0.1252
H 0.8790 2.2748 0.9071
C -0.5049 -0.7382 0.1141
C 0.5335 1.5619 0.1913
H 1.7224 -3.0468 -0.5189
N -0.1527 -0.8958 1.4553
O -1.5338 -1.4053 -0.4494
H -1.2801 -1.6051 -1.3200
O 1.6652 0.8693 -0.3952
C 0.6825 0.1479 0.0585
H -0.2417 -1.4977 2.2113
H -0.7360 1.4361 -1.4670
16

H -0.4877 1.0039 -2.4474
C 0.9735 0.4082 -0.4973
N 0.7416 -0.2380 2.5505
C -1.1028 -1.0484 0.3017
N 1.4076 -0.9745 1.7163
O -1.6964 -1.8537 0.7044
H 1.3469 -1.9006 1.9310
H -0.2873 1.8995 1.0506
H -1.2668 -0.5922 -2.3026
H 1.4616 1.2937 -0.8696
H 1.4267 -0.4972 -0.8722
C 0.9163 0.1081 1.4050
C -1.0668 0.3469 -1.7709
C 0.1372 1.0017 0.6435
C -0.5140 0.0405 -0.3496
O -1.9899 1.0023 -1.1935
13

H -0.7866 0.8053 1.9239
N 0.0135 -2.5611 -0.8283
H 0.7897 1.5883 -1.0813
C 0.1985 1.2246 -0.2411
O 0.0396 2.6347 -0.1501
C -0.6323 -1.3851 -0.5874
O 0.1910 -3.6052 -1.0795
O 0.0808 0.5179 1.7345
C 0.5119 -0.0803 0.4906
H 1.3861 -0.6555 0.3932
N -0.3602 -0.0392 -0.5877
H 0.2473 3.0662 0.6203
H -1.6792 -1.5107 -0.6072
19

H -0.3730 -0.4389 -2.3897
H 1.7740 -0.4642 1.1557
H -0.0782 -2.5222 -2.4546
H -0.4225 2.7447 0.1919
C 0.0008 0.3192 1.7439
C -0.4237 1.8579 -0.4268
H -0.2601 -2.1610 0.6694
H -1.3722 1.3408 -0.2488
H 1.1770 1.7969 1.9194
H 0.5335 1.4029 -0.2290
H -1.0537 0.1403 1.6774
H -0.3889 2.0721 -1.4879
H 0.8697 -0.8357 -1.3199
C 0.7401 -0.6727 1.2765
C -0.1923 -1.0272 -1.4955
O 0.3897 -1.9780 1.3275
O -0.4366 -2.4182 -1.5362
H -0.8472 -0.6527 -0.7165
O 0.3634 1.4958 2.3433
12

N -0.1451 -1.3078 -0.8552
H -1.3571 -0.7257 1.6901
C -0.5890 -0.3015 1.2034
N 0.8972 -2.8354 -2.3108
H 1.0508 0.6450 2.1767
H 0.5999 2.5267 0.3407
C 0.3465 -2.1225 -1.6952
C -0.2730 -0.3201 -0.1819
C -0.3694 0.9369 -0.6478
N 0.1984 1.6338 0.4356
H -0.7192 1.2166 -1.5559
C 0.3599 0.6540 1.4004
17

H 1.5822 -2.1568 0.1113
C -1.4083 -0.1709 -1.4189
C 0.9051 0.0431 -0.4531
H -0.0580 -1.4955 1.7456
C 0.6313 -0.7353 1.4232
H 2.6741 -0.7777 0.4507
C 0.2559 0.6699 1.6285
H 1.6308 0.5843 -1.1077
H -1.9309 -0.9347 -1.9764
O 1.4364 0.3061 2.1909
H -0.5150 1.0304 2.3041
C 1.6330 -1.1075 0.3604
N -0.2628 -0.5090 -0.9268
C -2.0837 1.0707 -1.4857
O 0.2161 1.1441 0.2927
O -1.8297 1.7984 -2.4029
H -2.8766 1.2404 -0.7361
18

C 0.1661 -0.0336 1.2931
H 1.5587 -1.5000 0.2555
H 1.4265 -0.5456 -2.3981
O -0.6104 2.9058 1.5663
C 1.0721 -0.2277 -1.4619
H 0.5495 1.0254 -1.7955
H -0.4081 -0.5497 2.0650
O -1.1444 -2.1591 0.4416
C -0.6693 -1.1211 -0.3738
H 0.8874 0.6211 1.7590
H -1.6376 0.7785 0.1819
H -0.9487 -1.2475 -1.4167
H -0.4535 2.5470 0.8156
C -0.6530 0.3676 0.0565
C 0.7851 -0.8222 -0.0271
H 1.3780 1.5624 -0.3079
C 0.6480 0.8645 -0.6390
H -1.9463 -2.4658 -0.0145
17

H -2.1292 -1.7614 -0.7762
H -0.1375 2.7976 0.1129
O 2.1366 -1.0749 0.1043
H 1.3168 -0.2786 -1.5491
N -1.0127 0.9061 -1.0630
H -0.8930 -1.6040 1.6704
O 2.4918 0.1228 0.1430
H -2.2186 0.0690 0.4452
C 0.5736 1.9838 0.1220
H 1.1069 1.9817 1.0825
N -1.6956 0.7108 -0.0207
C -0.7330 -1.9728 0.6960
O -1.6104 -2.2296 -0.1692
C -0.0892 0.6768 -0.2152
H 0.2262 -2.3298 0.5652
C 1.3463 -0.1596 -0.4874
H 1.3210 2.1622 -0.6608
23

H -2.0015 0.4594 1.5824
H 1.3301 -2.4051 0.2173
H 2.0893 1.5494 1.0146
C 1.6480 0.5734 1.1123
C 0.3570 -1.6761 0.0582
H 1.7573 0.1700 2.1031
C -2.1138 0.5915 -1.6983
C -0.2281 -1.1593 -1.1239
O 2.3900 -0.1173 0.1299
N 0.1904 0.5240 0.8337
C 1.9257 -1.3851 0.0668
H 2.8570 -1.8756 -0.0604
O -0.0898 -2.4968 -1.1837
H -2.6523 0.3068 -2.5902
H -2.8836 0.7768 -0.9362
H 0.4168 -0.6611 -1.8646
C -0.3095 1.9170 1.0822
C -1.0295 0.7431 1.2289
H -0.6912 2.5927 0.3345
N -1.3453 -0.5031 -1.3661
H -0.1636 -1.8560 0.9717
H -1.5702 1.5418 -1.8583
H 0.1168 2.3896 1.9461
18

H -2.0421 -1.5738 -1.0976
C 0.9990 1.3707 -1.2194
C 0.1467 -1.0153 -0.4848
N 0.2413 0.3360 1.8288
H 0.8406 0.7349 2.4913
H -2.0279 -0.2068 1.5091
H 0.7900 -1.7072 -1.0381
H -0.7339 1.1433 -2.3633
C -0.9674 -0.1972 1.5419
H 0.2978 -1.9690 1.7115
O 1.8828 1.9512 -1.7357
C 1.1083 -0.1343 0.4629
C -0.5032 1.4014 -1.3560
C 0.0220 -1.0738 1.2531
H -1.2060 2.0639 -0.8978
O -1.1916 -1.3487 -0.7932
H 2.1349 -0.2497 0.6412
C 0.2087 0.4746 -0.4540
23

C 0.1232 -1.2551 1.7495
C -0.9852 -0.1087 -0.5170
H -0.1711 -1.9364 -1.2806
H 0.7230 2.4451 0.1295
H -2.0090 -1.9825 -0.9882
O 1.3501 0.9807 1.3904
H 2.1915 0.2465 -1.4721
C 1.4410 0.2894 -0.6871
C -0.8709 -0.3324 0.9979
N -2.2767 0.4327 -0.6443
C -1.0911 -1.4668 -1.0217
H 0.1790 -0.0182 -2.3828
C 1.4497 1.6037 0.1119
H 1.6954 -0.5899 -0.0799
C 0.1585 0.2940 1.7822
H -2.6046 0.2687 -1.5761
H 2.3399 2.1662 -0.1723
H -0.2540 1.5063 -1.7030
C 0.1077 0.5180 -1.4384
H -1.8652 -0.3732 1.4467
H 1.0610 -1.5044 2.3054
H -0.3702 -2.2577 1.6359
H -0.3220 1.0738 2.4141
19

O -1.9674 -1.5162 -0.4282
H 1.2427 2.4033 0.3745
C 1.7913 0.0841 -0.7960
O 0.0348 -1.7564 2.4123
H -2.2149 -1.1984 1.7834
C 0.3957 0.5633 -0.4492
N -2.1450 -0.2297 -0.0917
O 0.2433 -0.8835 1.8145
C 0.6510 -0.6800 0.2490
H 2.2508 0.7728 -1.5599
C 0.3514 1.7645 0.4785
H -0.4003 0.2841 -2.1182
H -2.3550 0.6087 -0.4765
O -0.6303 2.0525 1.0928
C -2.0008 -0.9724 0.7925
H 2.5190 0.0829 0.0301
H 0.6135 -1.7365 0.1028
H 1.7571 -0.7692 -1.5055
O -0.1369 1.1261 -1.7053
19

N 0.2419 3.5364 -1.8907
H -2.3760 0.7783 -1.5861
H 1.7381 -2.8006 1.8655
H -1.2984 -1.3454 1.0773
C 1.6751 -1.7178 1.6743
H -1.7242 1.0640 0.2001
H -1.4855 -0.0198 -2.8423
C 0.2758 2.5750 -1.2951
H -1.3747 -0.8610 -1.3281
C -0.6890 0.8092 0.2363
C 0.3889 1.4596 -0.5654
C -0.6046 -0.6645 0.6225
O 1.4506 -1.6645 0.2660
C -1.6790 0.0141 -1.8158
O 1.4206 0.5473 -0.1610
H -0.2855 1.4344 1.0377
H 2.6553 -1.2388 1.7847
C 0.7067 -0.5462 0.3056
H 0.9637 -1.3599 2.4144
19

N 1.4621 0.4892 -2.3503
H -1.1305 -1.7022 1.1818
H 2.3065 0.1186 -2.2638
C 1.6446 -0.5639 1.8062
C 1.4150 -0.3550 0.4642
N -1.1996 -0.6945 1.3520
H -0.2467 -0.7493 -2.5402
H -1.3575 1.0340 2.5405
H 2.1491 -0.6873 -0.2209
H -0.9066 1.8465 -0.9115
C 0.0993 0.1556 -2.1262
H 0.5829 1.0631 -2.8260
N 1.8573 -0.8032 2.9108
N -0.9533 -0.0931 0.1458
C 0.2347 0.1571 -0.2276
H -1.8336 0.6062 -1.6740
C -0.8984 0.7784 -1.1303
H -1.7543 -0.5503 3.3919
C -1.4710 -0.0499 2.4775
17

H -1.9990 -1.7419 0.2379
C -1.0904 -1.1524 0.0785
H 0.9942 1.2573 -1.0179
O 3.0675 -1.4747 0.2455
H -1.7105 2.3683 -0.9222
O 1.2142 0.1505 1.8919
C 0.5312 -1.5976 0.1090
H 0.6208 -2.4226 -0.5447
C 0.2942 1.5777 -0.2426
C -1.2208 -0.0953 -0.8448
C -1.0621 1.6740 -0.5003
C 0.9724 -0.5871 0.9508
H -1.1497 0.6117 1.3009
N 2.0089 -1.2672 0.4515
C -0.7036 0.4353 0.3410
H -1.5322 -0.1104 -1.8559
H 0.7648 2.3745 0.3214
20

H 2.0034 -1.9756 -0.6181
C 0.1124 -1.1600 0.6518
N 1.7413 1.1024 -0.0979
N -1.4933 -0.8565 -1.9114
N -1.4487 -0.6434 0.6674
C 0.6333 0.2318 0.2810
C -0.7472 0.2817 0.1300
H 2.4135 0.4863 -0.5331
C 1.3238 0.7836 1.3627
H -0.7728 1.8161 -1.7390
C -1.4752 0.1244 -1.0868
H -0.3663 1.5825 2.5454
H -2.3937 -1.3046 -1.7377
H 2.2471 0.4151 1.7971
H 0.2504 -1.7818 1.5210
N -1.6341 1.5780 -1.3658
H 0.3660 -1.9624 -1.2285
C 0.9900 -1.6732 -0.4236
H -2.1196 1.9411 -0.5819
O 0.3696 1.0144 2.3673
19

H -0.7215 0.3441 -1.9484
H 2.3217 -2.9566 -0.8526
H -2.2977 2.1273 0.6739
H -2.4535 0.4405 0.4074
H 1.7088 -4.6365 -1.1043
C 1.4490 -3.6046 -0.8444
O 0.7441 -0.9148 -1.4423
H 1.0317 -3.6039 0.1600
C 0.4247 4.0604 1.8700
N -0.5294 0.7187 0.0440
N -0.4277 1.4461 0.9333
C -1.7249 1.2333 0.5019
H 0.8031 -3.2086 -1.6099
C -0.3261 -1.4295 -0.8501
C -0.2639 -0.1160 -1.0772
O -0.3063 4.2395 0.9817
H 1.2776 3.3970 1.7598
H -1.0078 -2.1085 -0.4371
H 0.2983 4.5720 2.8343
16

H -0.5773 0.6144 -2.5100
C 0.8406 2.1361 -1.1645
H -0.2225 -3.3277 1.9381
O -0.2918 2.5460 -1.9068
C -0.5834 -0.0963 0.4527
H 1.0588 2.2480 -0.1443
H 0.4357 -1.7771 2.0765
O -1.2472 -0.5502 1.6504
H -1.3102 -2.3925 1.2410
N 0.0411 0.5691 -0.5250
C 0.7885 -0.4007 0.0148
H 1.6727 2.5534 -1.6846
C -0.1344 1.2439 -1.7826
O -1.9263 -0.0701 0.7635
N 1.8427 -0.9852 -0.1423
C -0.3871 -2.3111 1.7232
25

H 2.1233 -0.1030 -1.2377
H 1.5094 -0.0875 -3.0716
H 0.1455 -2.7442 1.7426
H 1.3931 -2.1769 0.1779
C -0.2341 -1.7399 1.7836
H -0.3339 -1.5433 2.8275
C 1.4077 0.0334 -2.0240
C -0.9496 -1.2967 0.5610
C 0.3369 0.4617 1.8512
H 0.7066 1.4493 1.5767
C -0.9730 0.8748 -1.1965
O -1.0329 0.7074 2.1427
H -1.9551 -0.9229 0.5963
H 0.0919 1.8282 -3.0101
H 1.0346 -2.2771 -0.4718
H 1.1383 0.1537 2.5433
H 0.7955 2.4580 -1.2119
H -0.5817 2.8377 -1.9759
H -0.9717 -2.0358 -0.2206
C 0.3138 0.6077 -1.5622
H -1.3481 1.2045 -0.2584
C 0.0274 1.9526 -1.8863
H -1.0924 0.6597 3.0905
N 0.2018 -0.5866 0.9018
H -1.7534 0.2853 -1.6679
14

N -1.9345 2.1311 -1.7081
C 0.2448 -0.0785 -0.1147
O -0.0117 -1.1001 -0.7707
O 0.3951 -0.1481 1.2527
O 1.7962 0.2287 -1.7947
C 1.3893 -0.6610 -0.8675
H 2.0655 -1.4678 -0.8262
H -0.4915 -1.5282 2.1384
H 1.8393 1.0714 -1.3297
O -0.3261 1.0638 -0.5335
C -1.2104 1.6972 -1.0587
H -1.1067 0.1816 2.5428
C -0.8708 -0.5664 1.8013
H -1.7785 -0.8239 1.2687
16

C -1.2915 -1.5062 -0.0392
C 0.9944 0.6002 0.6384
H -1.7505 -2.4328 0.2158
H -1.3056 1.1015 -0.9920
O -0.2494 -1.7060 -0.8765
H 1.3171 0.3788 -1.9961
H 0.3557 -0.9604 1.9353
C -0.0383 -0.4035 1.1123
H -2.2166 0.0986 1.1464
H 0.5288 1.5600 0.8953
H 2.5743 1.5426 -0.0027
O -0.5861 1.3002 -1.5807
N 2.3562 0.8615 0.7214
C 0.3776 -0.4857 -0.3544
N -1.4629 -0.3453 0.6490
C 0.3967 0.3964 -1.4722
14

H 0.5227 0.5963 1.9855
H -0.8778 1.5934 1.8800
C -0.4275 -1.4985 0.7851
H 0.6369 -1.3548 -1.7437
C -0.3071 0.8654 1.3074
C 0.4267 0.5556 -0.9579
O 1.1314 0.6121 -1.9294
N 0.1993 1.4360 0.0389
H -0.6453 -0.5015 -2.4046
H 0.6106 -1.4464 0.6014
O -1.0270 -0.3211 1.1400
H -0.9752 -2.3997 0.9387
N 0.1337 -0.4927 -1.7777
H 0.5985 2.3558 0.1363
17

N 2.3102 1.8356 -0.6173
N 1.4196 1.9999 0.4905
H 1.9525 2.0064 1.3311
C -0.1000 -1.0780 -0.5821
C -1.5520 -1.2877 -0.9892
H 0.6913 -1.8302 -0.7610
O -2.5944 -1.4086 -0.0315
C 1.2399 0.9803 -0.3077
H 1.4320 0.7113 -1.3430
H -1.7721 -0.3840 -1.5864
H -0.5835 -0.9501 1.9847
H -1.6261 -2.1885 -1.5999
O -0.9923 0.9890 1.9585
H 3.2321 1.9914 -0.5028
H -2.7659 -1.3567 0.9041
C 0.1884 -0.0526 0.1754
C -0.4796 0.0226 1.4767
13

C -0.5500 0.4371 -0.5929
H -1.5565 0.0533 1.4829
H 0.2537 1.9403 0.9773
H 2.4089 0.8964 0.3585
H -2.4646 0.9791 0.3599
H 1.2419 -2.2681 -1.6926
N 0.3484 -2.1654 0.3367
C -1.4635 0.6148 0.5883
C 0.6915 -1.9361 -0.8735
H -0.6915 0.9784 -1.5451
C 0.2185 0.9717 0.4936
N 1.5216 0.5252 0.4149
C 0.0417 -1.0268 -0.3079
18

H -1.0385 2.5773 -1.3281
C -1.0066 1.8225 -0.5670
H 1.9681 -2.1182 -1.1531
H -1.0078 -2.0530 -0.2147
H 1.8410 0.2505 -0.9194
H -0.8791 -0.7916 2.1499
H -2.1990 0.4618 0.0201
N 0.6999 2.0326 -0.1464
O -2.3250 1.2099 -0.5600
C 1.2206 -1.6556 -0.5439
C 1.1351 -0.2041 -0.2302
N 0.9240 -1.2910 0.7245
O -0.5674 -0.0723 2.4589
H 0.1148 -3.3827 0.1437
C 0.0134 -2.3076 0.0089
C 0.0341 0.8965 -0.0578
H 1.4961 2.4838 -0.5024
O -0.4236 2.1413 0.7170
15

C 1.7275 -1.1913 0.4886
H 2.5714 -0.5465 0.7572
H 0.3867 -0.5848 2.1986
H -2.7648 2.4575 -0.3909
H -2.2769 0.8544 0.6677
C -1.4933 1.1666 -0.0016
N -1.7569 2.4111 -0.4907
H 2.2009 -2.0557 0.0828
C -0.3114 0.7129 -0.7024
C 0.4683 -0.6710 1.1697
H -0.3511 -2.4303 0.0078
N 1.2726 0.8324 -2.5238
C -0.4742 -0.1158 0.2587
C 0.2198 -1.5732 0.2046
C 0.5813 0.7338 -1.7264
19

H 2.4659 0.1795 -2.0393
H 1.3425 1.6222 -1.4716
N 2.5328 -1.7121 0.3093
H -1.9921 0.3350 2.9834
H -0.5628 1.0726 2.2737
N 0.7425 -0.0532 0.3162
C 0.4596 1.0306 -0.6282
H -0.8230 -0.6688 2.1870
C -1.6245 0.2510 -0.2382
O -1.6610 -0.2694 -1.4426
H -0.8691 -1.7965 0.0218
C 1.6640 -0.9349 0.2196
C 0.4404 -0.4392 -1.2961
H 0.3975 -1.0489 -2.2049
H 0.0788 1.9082 -0.1279
C 1.6047 0.5028 -1.5192
O -2.1020 0.5736 0.9572
C -0.7816 -0.8439 -0.4532
C -1.3126 0.2914 2.1529
19

C 0.1497 -0.7733 -0.8389
H -0.2658 -1.4994 2.2688
H 3.6362 -0.3270 -0.3430
H -2.1625 2.6126 -0.1976
H -2.2701 -0.0225 1.0982
C -1.8353 1.6198 -0.3900
H -0.4450 1.8303 -2.0217
H 0.7541 -1.9293 1.1628
C -1.2257 1.2003 -1.6531
N -1.7249 0.5241 0.5085
N 0.5662 0.3440 -0.2710
H 0.4997 -0.0845 2.1110
O 2.7804 -0.3962 -0.7114
H 1.7655 -1.0920 1.9594
C 1.6200 -0.1282 -0.4697
H 0.2030 -1.7241 -1.2593
C 0.6820 -1.1197 1.8684
H -1.8500 0.6564 -2.3320
C -0.8775 0.3088 -0.4892
18

H -1.2112 0.3827 1.6831
H 1.7533 -0.0972 0.6603
H 0.4799 -1.8668 -1.7038
C -0.3903 -0.9785 0.0994
H 2.9260 1.2897 -0.4229
H -2.1465 0.0883 0.1627
C -1.5465 -0.3621 0.9500
H 0.0600 -1.8379 0.5777
H -1.7823 -1.4168 2.5033
H 0.5124 1.3338 0.9706
O 2.2454 1.7622 0.1044
O -2.4052 -1.0897 1.8573
C 0.2175 0.1422 -0.7035
C 0.5059 1.4460 -1.3444
C -0.2198 -1.0671 -1.4248
O 0.6758 2.3924 -1.9318
C 1.1753 0.7778 0.2905
H -0.8496 -0.8992 -2.3282
16

H 1.8183 -2.2154 -0.9466
H 2.2260 -0.1037 -0.0441
H -2.0593 1.7887 1.9308
H -2.7072 1.9500 0.2886
O 1.0999 -2.0319 -0.2634
O 1.7309 -1.2442 1.5600
C 1.7420 -0.9385 0.4404
H 0.7919 1.7375 0.3092
H 0.8562 0.2460 -1.6847
C -2.0516 1.3483 0.9210
N -0.0584 -1.4824 -1.0263
C 0.0859 0.0382 -0.9754
C -1.0122 0.6258 0.0327
N 0.1570 1.0241 0.1423
H -0.7996 -0.7598 -1.5370
N -1.8199 0.0173 0.8524
22

C 1.7931 -1.1738 -1.3965
C -0.7705 1.2496 -0.1669
H 2.3953 -0.3201 -1.6956
H 1.3597 -2.0743 2.2511
C 1.8572 -1.6072 0.2062
C -1.0091 -0.0198 0.3896
H 1.7311 -1.9902 -2.0844
C 0.9182 -0.8516 -0.4294
H -0.6865 -0.7925 -2.1448
H -1.6559 -0.7531 -0.0381
N 1.6391 -1.3663 1.5964
H 2.6461 -2.3522 0.1082
H -0.9857 2.7886 -1.6208
N 0.3350 0.3239 -0.2188
C -1.6721 2.2406 0.4718
H -1.4331 0.8633 2.3944
C -0.8756 0.2487 1.7847
O -0.3407 -1.3833 -2.6973
H -2.7189 2.0773 0.6008
N -1.0296 2.3314 -0.7885
H -1.3303 2.9019 1.2324
H -0.1668 -0.3409 2.2456
15

H 1.5870 -0.2209 -1.3612
H -1.3441 0.4489 -1.4621
C 0.9356 0.4513 -0.8446
H 1.4237 1.3426 -0.5376
O 0.2207 3.1108 0.9773
C -0.1537 0.0838 0.1137
H 0.1562 -3.3207 -0.2942
N -0.5871 0.9152 1.0862
N -0.7859 -1.3546 0.4800
H 1.1238 -2.1486 1.3083
H -1.6069 2.5392 0.5685
C 0.3350 -1.8180 0.7166
N -0.4282 0.2027 -1.2569
O -0.3033 -2.4704 -0.3005
C -0.5728 2.2387 0.8066
18

C -0.8352 -1.2680 -0.1476
H -1.7480 -0.4504 -1.9999
C 0.3837 -0.2811 -0.6133
H -1.5716 -1.2176 0.6524
C -0.9359 1.0900 0.4655
C 1.8723 -0.4667 -0.3370
O 0.1144 1.8082 -1.9322
H 2.6225 -0.3539 0.4665
C -0.3338 1.0526 -1.0182
O -1.0585 1.4184 1.8284
C -0.0500 0.5552 1.5778
H 1.8394 -1.5634 -0.3551
H -1.8998 1.5665 0.1518
H -0.0272 -0.3778 2.1597
H 0.8978 1.0203 1.8683
C -0.9384 -0.3122 -1.2949
H 2.3587 0.1018 -1.1262
H -0.6904 -2.3220 -0.3461
18

H 1.1777 1.0525 -0.5237
H 1.6661 -0.9971 3.0515
N -0.1900 -0.0115 0.3646
C 1.0528 0.5408 0.3945
H -2.1477 0.5804 0.6694
H 3.1031 -0.3920 0.7655
H -0.6983 -0.8979 0.8220
O -1.4756 0.0250 0.7360
N 1.3186 0.6309 1.8390
C -1.3911 -0.4440 -2.2910
C 2.1253 -0.2262 1.0882
H 0.8288 -1.8180 1.7469
H -0.7872 1.0807 -2.8437
H -0.9672 1.6370 -1.2604
C 1.3028 -0.9002 2.0522
H -2.2080 0.5247 -1.7154
C -1.1726 0.8676 -1.9138
O -1.5377 -1.2528 -2.9819
18

C 0.8407 0.5185 -0.1436
H -1.5836 1.8910 0.7416
H -0.4086 -2.5359 1.0823
H 1.2512 1.4963 -1.9941
C 0.2887 0.9465 1.1379
N 0.1371 -0.8666 -0.0981
N 2.2686 0.3845 -0.3707
H 0.9556 0.9579 2.0003
H -2.0898 -1.9306 0.9070
N -0.8611 1.4906 1.3064
C 0.4930 1.5941 -1.2204
N 2.3573 -0.5086 0.3174
H -2.3084 -1.3980 -1.5061
O -1.8851 -0.5288 -1.3765
C -1.0370 -1.7915 0.6568
O -0.2790 2.4675 -1.2970
C -1.0264 -0.8595 -0.4098
H 2.8868 -1.3276 0.2665
17

C -0.0147 -0.7566 0.1730
N -0.2336 0.6257 0.0490
O -0.4235 -0.2542 -0.9127
C 1.1184 -1.1919 0.7364
C -1.6274 2.3405 -1.4391
H 0.1426 1.4847 0.1628
H -0.7824 -1.7943 1.7527
H 2.9036 -1.9763 -0.2456
N -2.4602 1.4393 -1.3130
C -0.0009 -2.0450 1.0853
H -1.3157 3.0355 -0.6876
H -1.3477 2.6192 -2.4326
N 2.1828 -0.2005 0.8932
H 0.3196 -3.0626 1.1639
H -3.0717 0.7952 -0.9123
C 2.2686 -1.3696 0.2551
H 2.3422 0.3110 1.6714
17

H 0.8742 -1.6475 -1.8743
C -0.7708 0.3331 -1.7470
C -1.0195 1.0703 0.5590
H -1.6225 0.2347 -2.3973
H -0.6776 -2.0784 -1.2691
H -1.4380 -1.1172 0.8834
H -1.1490 1.9641 1.0891
H 1.7536 -0.0595 2.8779
C 0.4940 -0.6582 -0.0445
H 0.0003 1.0040 -2.1070
N -1.3976 0.6369 -0.5765
H 0.6143 1.2411 2.3217
C 1.4609 0.0295 0.7360
C -0.8804 -0.3296 0.4483
H 2.4188 0.2564 0.2659
C 0.0746 -1.3110 -1.2235
C 1.2647 0.4312 2.0580
18

H -0.8040 0.2100 -2.4190
H 0.5225 2.1561 3.5070
H 0.0779 0.8124 2.7085
C -0.5974 -0.8551 -2.6171
H 1.6422 -0.7602 0.3746
H -0.4067 -1.9404 -2.4486
H 1.8396 1.2329 3.2879
O -2.5290 -0.6373 -0.9729
N 1.0432 -0.3494 -0.2386
C -1.5046 -1.1541 -0.6576
H -1.4898 -0.9924 -3.2101
O 1.0008 2.2966 1.5463
C 0.9459 1.4861 2.7045
H -1.4513 -2.1480 -0.2196
C -0.2840 -0.4310 -0.2828
O -0.0389 0.5146 0.2493
H 0.4804 -0.7199 -2.6821
N 1.5531 1.2791 1.3704
19

H 0.0725 2.7324 0.5829
O -0.9987 -2.0770 0.4169
H 0.9119 -1.0091 1.8455
H 2.0292 1.0426 -1.4229
C 0.0373 1.6945 0.3034
H 2.0495 1.5550 0.9562
H 0.7656 -2.4326 -0.9565
H -0.1009 0.2019 -1.8806
N 0.7642 -0.2399 1.1809
O 2.0252 0.3991 -0.6809
H -1.5624 0.5728 1.0683
H -1.7391 -1.8267 0.9257
N 0.1926 -2.2288 -0.1556
C -1.1970 0.9041 0.0797
C -0.0847 -0.8882 0.1026
H -2.1332 1.3648 -0.2604
C -0.7407 -0.0936 -1.0362
C 1.3006 0.9046 0.4524
H -1.5917 -0.5760 -1.5215
21

H -0.9820 0.4930 -1.9980
H -0.1270 2.4335 -1.1512
C 0.1422 0.5338 -0.1580
C 0.6292 0.2800 1.2168
H -0.1720 -2.9509 -1.2257
O -1.7824 1.7120 -0.0249
C -0.7991 -0.2349 -1.2138
H -0.7481 -1.1381 -1.8379
H -1.3205 3.6786 0.8778
H 1.5994 0.5170 1.6333
C 0.7030 -2.8673 -0.6276
H 0.0207 -2.6412 1.2818
H 1.1048 0.4565 -0.7021
H 0.4064 3.0573 1.3839
C 0.7862 -2.4169 0.5733
H 1.6031 -3.3450 -0.9628
H 1.6866 -2.0094 0.9499
H -0.0769 -0.0188 1.9879
H -1.6236 -0.5446 -0.5493
C -0.5618 1.9718 -0.2454
C -0.4880 3.0335 0.7919
19

H 0.1942 -0.4662 2.6322
H 2.6372 -0.8755 0.2098
H 1.5442 1.3493 0.9622
H 0.7365 -1.8377 1.7256
C 0.3176 -0.8342 -0.5601
H -2.4060 -0.4685 0.7084
H -2.4196 0.1441 -0.9860
F -1.8660 2.2341 0.9376
C 0.7988 -0.7393 1.7537
N 1.6461 -0.7452 0.3766
C 0.7365 0.0269 -1.6909
H 1.5075 -0.2954 -2.3987
C -1.9209 0.1271 -0.0447
H -0.8517 1.0829 -2.2986
H -0.0474 -1.8412 -0.7458
O 0.0604 1.1407 -2.0437
C -1.2792 1.3177 0.3977
C -0.3775 0.2540 0.1865
C 0.9893 0.4266 0.8783
18

H 0.8451 0.5539 2.1962
H 0.4283 1.8597 -0.8472
C -0.1497 -0.0431 0.4728
H 2.1509 0.1861 -0.2451
N 2.2651 -2.6508 -1.2599
C -1.2241 0.1452 -0.5971
H -1.5979 -0.5694 -1.3144
H -2.1006 2.0044 0.2333
C 1.5859 -1.7897 -0.7035
C 0.1035 0.8311 -0.7573
C 1.3530 -0.2542 -0.8622
C -2.1472 0.9621 0.1013
H -2.8729 0.4087 0.6289
H -0.8368 1.2695 2.0901
C -0.0740 0.6722 1.6832
C 0.5385 -1.3474 0.2320
H 0.1452 -2.1687 0.8707
H 1.5876 -0.0695 -1.9217
25

H 0.5938 -1.7313 1.1021
H -1.2114 1.4409 2.0434
H 1.0540 0.8182 -0.1669
C -2.5120 0.6078 -0.1957
H -1.4352 0.5069 -2.3349
H -0.8773 -1.2380 -1.9931
O 3.7871 -2.6432 0.8261
H 2.3756 -2.0208 -2.0673
C -0.7754 -0.0099 -1.6633
C 2.8402 -2.0015 0.5699
H -0.2972 0.0774 2.4123
H 1.8258 -0.6287 1.7523
H -2.2307 2.6880 0.2998
H -2.8145 -0.4687 -0.1989
C -1.6603 1.9409 -0.2434
C 0.2053 0.5477 0.4393
O 2.5926 -1.2194 -1.5704
C -0.2938 0.9430 1.7522
H -0.9759 2.5713 -0.8341
C 2.1648 -1.3840 -0.3242
O 0.1507 -0.8883 -2.0402
H -3.5008 1.0530 -0.2002
C 1.5459 -1.2372 0.9114
H 0.4720 1.6884 2.0162
C -1.0234 0.5875 -0.2925
23

H -1.4223 -2.3036 0.8107
H 0.2746 0.0737 3.0623
H 2.2141 2.3365 0.1738
H -0.5697 -3.1190 -0.5106
N 0.8977 0.1754 -1.8595
C -0.2520 -0.4135 2.3116
C -0.5001 1.2643 0.1948
H -1.2928 -0.5154 2.4221
C 0.6227 1.8301 1.0067
H 1.3509 -1.4587 -0.8551
C -0.9067 -1.0796 -0.9473
H -1.3763 1.8382 0.4757
C 0.5345 -1.1335 -1.4897
O -1.1653 0.1465 -0.3478
H -1.6517 -1.0807 -1.7358
C 0.1286 1.1809 -1.1579
H -0.1796 2.0332 -1.7339
H 0.1811 -0.8935 1.5081
H 0.2943 2.4642 1.7995
C -1.0100 -2.2644 -0.1306
H 0.4960 -1.7847 -2.3376
O 1.8597 1.6470 0.7274
N 1.4722 1.0566 -1.3870
19

H -1.0568 -1.4084 1.1645
N 3.6127 -0.3142 1.4493
H 0.1068 -1.6388 -0.7287
H 1.6721 0.4733 -2.0675
C -0.0745 0.6261 0.0086
C 1.5711 0.0961 0.0497
H -3.0235 -0.1808 0.8222
H -2.2449 1.3262 1.2093
C -0.8276 -0.3515 1.1475
H 2.3630 -1.1777 -1.6643
C -2.0934 0.3789 0.7040
H -1.4856 -0.2034 -1.5652
C 0.5322 -0.7321 -0.3703
H 0.0986 1.6898 0.1636
C -1.4305 0.5267 -0.7513
C 1.7565 -0.3282 -1.3492
H -0.3656 -0.0692 2.0709
C 2.6669 -0.2085 0.8202
H -1.7773 1.4959 -1.1133
17

H 0.1427 0.6793 -3.4678
H -0.6821 -1.1790 -1.2780
H 2.6659 -0.2158 -0.3608
C 1.6880 -0.1201 -0.7971
C -1.4112 0.3501 2.3899
H 0.1145 -2.1744 0.9466
H 0.9924 0.5543 1.2223
H -1.6337 1.3122 2.7293
C 0.6967 0.3175 -2.6773
C -0.3834 -0.5017 -0.5364
C 0.7584 0.0278 0.3326
N 1.6048 -0.1814 -2.1792
H -1.8390 0.0317 1.5120
O -1.0444 1.7290 -0.4252
C 0.0447 -1.2059 0.5910
H -0.8295 -0.3029 2.9606
O -0.8850 0.8794 -0.9626
19

C 0.0238 0.2866 1.1528
C 0.5174 -0.2625 -1.2073
N 0.8894 -0.4344 0.1889
C 1.7698 0.6292 2.3696
C -0.6470 -1.1182 -1.7234
H -0.5629 0.2795 2.0621
H -1.1671 -1.9115 -1.2600
O -2.9195 1.2314 -1.8126
C -0.8410 0.1623 -1.2626
N 2.0360 0.7652 3.2287
C 0.2780 -1.2872 0.9020
H -0.2491 -2.0250 1.3981
H -0.4242 2.4637 0.7675
H -0.6158 -1.1474 -2.7903
C 0.2163 1.6229 0.6628
H 1.0613 -1.8072 0.2501
C -1.9699 0.7820 -1.4987
H 1.4257 -0.0951 -1.6920
H 1.1787 1.8657 0.2642
18

H -0.3294 -1.8925 2.7637
C 0.4480 1.8132 -1.9872
H 0.2405 2.1978 -2.9625
H -0.6567 0.9546 0.3481
H 0.4768 2.5434 -1.2038
N -1.2389 -1.4928 0.9883
C -0.0037 0.4696 -1.5637
H 0.2873 -1.8948 -0.4132
N -0.3554 0.1619 2.6516
C 0.0720 0.2476 -0.0680
H -0.7089 -0.1326 -2.1020
H -2.0649 -2.0624 1.0800
H 0.1720 0.8074 2.1060
O 1.2227 0.6487 -2.1929
C -0.2684 -1.1929 0.1527
C -0.6207 -1.0299 2.1976
O 1.4682 0.3621 0.1993
H 1.8595 -0.5083 0.0061
25

H -2.5998 -0.1232 0.4961
H 0.9754 -2.3718 -0.4400
H 1.1350 3.0553 1.3440
C -0.0443 -0.0966 0.6653
H 1.9945 0.2079 1.6228
C -2.2648 -0.7881 -0.2865
H 2.1101 -2.1001 -1.7529
C -0.8855 0.8927 -0.2616
H 0.8347 0.2042 -2.2401
C 1.5294 -1.5834 -0.9746
H -1.5541 1.7346 -0.3099
C 0.4928 -0.6261 -1.6054
C 0.4639 1.1931 0.2145
H -2.1604 -1.7848 0.1209
C 0.7276 1.6810 2.4905
O 0.3904 2.8063 1.9320
H 0.8527 1.8903 -0.4771
H -0.2817 -0.9537 1.2660
C 1.0334 0.6883 1.4831
H -2.9810 -0.7819 -1.0969
H 2.2277 -1.1051 -0.2771
H 0.9457 1.4893 3.5176
C -0.8438 -0.4761 -0.8155
H -1.4157 -1.7993 -2.5821
C -0.6823 -1.2527 -2.0330
20

O 2.8758 1.2070 0.2466
C 0.4481 0.4491 0.4732
H -2.7580 1.4643 0.8870
C -0.0602 -0.6745 -0.3663
H -0.8457 -2.5893 -0.9418
N -2.4799 -0.2239 -0.2490
H 3.2964 1.2094 -0.6293
H 2.3910 -0.7625 0.7860
C -0.5528 1.4956 0.5440
H -0.1357 2.4578 0.3275
H 1.1876 0.8936 -1.6671
O 0.2061 0.7817 1.7120
C -1.3611 -0.5467 0.5135
C 1.1081 0.2542 -0.8371
C -0.0190 -1.9219 -0.9378
C -1.9614 0.8283 0.5316
H -2.9112 -0.8427 -0.9838
H 0.9754 -2.2896 -1.0012
H -1.3998 -1.3101 1.2687
C 1.9962 0.1204 0.3232
21

H -1.1916 2.7066 0.4316
C -1.6708 0.4203 -0.2420
H 0.3746 0.4741 -2.5562
C 0.5736 -1.2137 1.0000
H 0.9636 -1.0269 -1.8884
C -0.8581 0.6090 0.9655
C -0.9444 -0.6596 -1.0219
H -1.0638 -0.6751 -2.0988
C 0.2753 -0.3862 2.1359
N 3.2461 0.8442 -1.3311
C -1.0876 1.6665 0.2811
H -1.3464 -1.5799 -0.6613
H 0.2113 -2.2014 0.9464
H 1.3913 -0.9926 0.4022
H -2.6826 0.5968 -0.5039
C 0.3663 -0.1436 -1.6628
O 0.9553 0.8472 -0.7429
C 2.1570 0.7835 -0.9996
O -0.6090 0.8175 2.2157
H -0.2521 -0.9911 2.8701
H 1.1920 0.1045 2.4604
18

H 1.5381 0.1322 -0.8439
N -1.4556 1.2641 -1.7370
C -0.8858 -0.7418 0.0709
H 2.4019 -1.3211 1.2708
C -0.0806 0.0481 1.1203
C 1.2640 0.0858 0.2186
H -0.2443 -1.6695 -1.8257
O -2.0227 1.4223 1.3776
H -1.8193 -1.1546 0.4059
N -0.7783 0.3098 -2.0245
C -0.6223 1.3165 -0.7713
H 1.7822 0.9603 0.5757
H 0.8925 -2.0902 0.6038
C -1.0893 1.0963 0.6770
H 0.1668 0.2597 2.1419
H 0.1101 2.0962 -0.7521
C 1.4483 -1.1964 0.8056
C -0.6058 -0.8178 -1.3136
17

O -0.4512 -0.1147 0.6864
H 2.6380 -0.8428 -0.3990
C -2.7026 -0.8706 0.8581
H -3.0711 -1.0590 -0.1381
C 1.7645 -0.2149 -0.4344
C 0.3777 -0.1024 -0.1294
H 0.1581 2.1548 0.7535
H -3.3256 -1.0587 1.7366
H 0.7340 -0.8601 -2.3106
H -2.6286 0.2131 0.8766
C 0.6803 -0.9627 -1.2346
O 3.2815 1.4447 0.3487
H 1.0909 2.7689 -0.6380
C 0.9641 1.9713 0.0692
H 0.3493 -1.9751 -1.0237
H -1.9990 -1.6694 0.9143
C 2.1399 1.1774 0.0643
18

O 1.7413 0.1591 2.5975
O -0.2018 0.3549 -0.4982
C 1.2140 0.3112 1.4914
O -2.4778 0.2847 2.0652
C -2.2938 -0.4909 -0.0481
H -3.0484 -0.8791 -0.6931
H -0.6002 -1.6717 -0.7594
H 1.0897 -0.2760 -2.5384
H 1.8637 -0.6620 3.0939
H 1.5914 1.2747 -0.2090
C 0.8946 0.6580 0.3135
H -0.6328 -1.2077 0.9326
C -0.8581 -0.8743 -0.0646
C -2.5484 0.5055 0.9004
H 3.0327 -0.2513 -2.3628
H -2.8865 1.4740 0.4737
H 2.0705 1.1648 -2.3090
C 2.0499 0.1262 -2.3857
23

H -0.7046 2.0949 1.0017
H 0.6479 -2.5776 -0.1039
N 0.8402 0.1437 0.1523
H 1.0928 -0.0927 -2.0762
O -1.2086 -1.3018 0.9539
H -2.0569 -0.5699 0.5405
C 1.0944 -0.5126 -1.0749
H 3.0471 0.2440 -0.0216
H 1.2188 -2.5930 -1.7623
C -1.2179 -1.0794 -0.1645
C 0.6447 -2.0064 -1.0545
O -2.9716 -0.1715 -1.4158
H -1.4199 -1.9299 -2.1277
C 1.2756 1.5847 0.2560
C -0.2707 1.7094 1.9231
H -3.3153 -0.7200 -0.8652
H -0.4031 0.6592 1.9109
H 1.8805 2.2525 0.8486
H 0.6887 1.8609 2.4359
H -0.9068 2.2343 2.6216
C 2.0155 0.3344 -0.1453
H 0.7818 2.1715 -0.5099
C -0.7527 -1.7347 -1.3226
19

H 1.5462 -2.2936 -1.2396
C -0.5845 0.9957 2.0263
C 1.3451 -1.3086 -0.8307
C -1.7180 0.5813 0.2508
N -1.7837 1.1550 1.3820
H -1.8147 0.7941 -1.7657
C 0.7692 1.1352 1.5232
C -1.2891 -0.9076 -0.7815
H -0.7675 1.0724 3.0793
C 1.1748 -0.4463 -1.8367
H 0.9606 -1.4882 0.1361
H 0.6128 2.2306 1.3215
H -1.4010 -1.5028 0.0873
N -1.5152 0.3746 -0.9215
H 1.7441 1.2300 1.0154
H 0.9198 -0.3604 -2.8105
H 1.1425 0.1391 1.8687
H -1.0567 -1.5119 -1.6226
O 1.7152 0.1113 -0.8819
14

N -2.0382 0.2615 -0.1630
C 0.3303 0.3154 0.6471
N 0.5099 1.6303 -0.0675
H 0.3286 0.5908 1.6268
N -1.1141 -1.5784 1.3258
C -0.0438 -1.2165 0.5794
H 1.8096 0.5815 -2.4320
H 0.6358 -1.9905 0.4429
H 2.6096 -0.0369 -1.0644
C 0.8968 0.6023 -0.5528
N 1.8119 0.3979 -1.4762
O -2.5823 -0.1720 0.9375
C -1.3013 -0.5348 0.6191
H -1.8527 1.1494 -0.4227
19

C 0.7881 0.3846 0.4329
C -2.2808 1.6063 -0.8282
H -2.5047 2.0916 -1.8233
H 0.5290 1.2866 1.0210
H 1.4654 -1.1437 1.9278
C 1.9420 -0.4234 1.2724
H 2.4722 0.3324 1.8071
H -1.3000 2.0376 -0.6395
H -2.7667 1.2915 0.2413
H 0.0711 -0.6837 -1.5103
N -0.3980 -0.4950 0.5930
H 2.7177 -0.9269 0.7282
H 1.2372 0.9281 -0.4486
C 0.2734 -0.8349 -0.4583
H -2.9897 2.2446 -0.1707
H 2.0037 -2.6611 -0.1207
O 0.1267 -3.2269 -0.4677
H -2.3278 0.5878 -1.2476
C 0.9412 -2.3957 -0.3090
18

H 1.5182 -1.1713 1.2726
C -0.7332 -0.7265 1.7364
C -1.6883 0.0315 0.7994
H 2.4609 0.0568 -1.2148
H -0.3574 -0.0868 2.5495
C 0.4533 -0.1206 -0.4972
H -0.8936 -1.8977 -0.5619
H -2.6426 0.1119 1.3249
C -0.6827 -1.0469 0.1042
H -1.6299 0.9002 0.1707
H 1.0825 1.8853 -1.9670
C 0.5997 -0.8015 0.8629
C 0.4916 1.4038 -1.0600
O -0.0823 2.3456 -1.8230
H 0.5026 1.8823 -0.0953
C 1.4276 -0.2124 -1.4579
H -1.1364 -1.6553 2.1617
H 1.3100 -0.8985 -2.3053
18

O -0.0749 -0.2346 -2.4674
N 1.6685 -0.5543 2.8529
C 1.5771 -0.0966 1.6032
C -2.2114 -0.9366 -0.4496
C -1.0418 0.8144 -0.4799
O -2.0887 0.3332 -1.1336
H -1.9858 -1.1318 0.6059
H -1.7468 -1.7024 -1.0747
H 0.3102 -0.9052 -1.8986
H -3.2938 -1.0176 -0.5091
H 1.7246 1.5252 -0.1250
C 2.1024 0.8134 0.5643
H 0.3388 0.6241 -2.3001
H -1.0117 1.8983 -0.4180
H 1.6547 -0.4615 3.8563
H 3.0739 1.1127 0.8684
O -0.1272 0.1346 0.0641
N 1.1319 -0.2151 0.4410
11

H 0.7506 -0.2169 -1.4908
C -0.8489 -1.2034 -0.4466
C 1.0514 1.3156 1.2283
N 1.3591 2.1774 1.8655
C 0.2765 -1.1894 0.4442
O -0.8203 1.0279 -0.9298
H 0.6300 -2.0877 0.8628
O -1.8803 -1.5585 -0.8750
C 0.0461 -0.0745 -0.6860
H -1.2997 1.6223 -0.5217
C 0.7355 0.1872 0.5491
13

H 0.1444 -2.7877 0.7641
C -0.0763 1.4160 0.3070
O 1.3369 -3.2154 -0.7586
C 0.4514 -0.0378 0.1605
C 0.5855 -2.5430 -0.1678
H 1.1907 2.8081 0.6759
N -1.1089 2.2171 0.2096
C -0.6330 -0.3822 -0.7130
O -1.6293 -0.3563 -1.3937
H 1.3237 -0.1845 0.7074
H -2.0009 1.8054 0.0915
N 0.1729 2.5576 0.6841
N 0.2429 -1.2973 -0.5671
21

C -0.0919 0.1511 -2.0532
H 0.8047 1.2660 -3.4977
C -0.5888 0.9353 0.5697
H 0.9691 1.9328 -1.7389
H -2.4346 -0.3597 0.8057
N 0.8001 0.6693 0.7302
N -1.5887 0.0697 1.0136
C 0.3548 1.4332 -2.5034
C 0.1131 -1.1997 1.9906
C -0.3442 0.2429 1.8177
O 1.6343 -0.3767 0.4546
H 1.3831 -2.4186 0.8264
C 0.8057 -1.5025 0.6742
H -0.6805 -1.8970 2.2232
H -0.4106 2.1624 -2.8130
H 0.2656 -1.7730 -0.2370
H -0.8132 1.9036 0.2267
H -1.0008 -0.1398 -1.5966
H -0.3537 0.8730 2.7002
H 0.3669 -0.7563 -2.4103
H 0.8098 -1.2161 2.8174
17

C -2.2340 -0.7382 0.2670
H -2.6434 -1.5780 -0.2946
H 2.7606 0.6848 1.2087
H -0.8885 1.8098 -1.3336
C 1.2241 0.4014 -0.5495
C -0.8597 1.3024 -0.3662
H -1.0617 2.0307 0.4311
H -3.0326 -0.0198 0.4527
H 1.4281 1.1590 -1.2741
H -1.9360 -1.1943 1.1990
H 1.3733 -1.8552 0.0014
C 1.9245 -0.9424 -0.2885
H -0.0015 -0.3187 1.1736
C 2.1187 0.1945 0.5239
C -0.0732 0.1005 0.1738
O 3.1295 -0.9749 -0.7076
N -1.2282 -0.0616 -0.6170
18

H 0.0340 0.5497 2.4826
C -0.6162 0.7771 1.6283
N 0.1359 1.8219 0.8013
C -0.3276 -1.4674 -2.6042
H 1.9896 -1.5723 1.4997
C 0.4125 -0.6924 -1.8912
O -1.9145 -1.0587 0.7707
H -1.0821 1.1214 -0.7304
H 2.1349 -1.8814 2.0546
N -1.0337 -1.9370 -3.3164
H -1.5951 1.1582 1.9954
C -0.2450 0.7473 -0.1125
H -0.4897 2.5803 0.5153
C -0.8151 -0.4336 0.6921
H -0.1507 -1.2965 0.8308
H 0.8547 0.7592 -2.3609
H 1.8343 0.4756 -0.9098
C 0.8736 0.3487 -1.3453
21

H -1.3059 -1.7416 -0.4574
H 1.5903 -0.3443 1.1488
H 1.7214 2.1940 -0.9206
H 0.3299 -2.2295 -0.1987
H -1.2324 0.2266 2.4581
H -0.1976 1.6045 1.8379
C 0.7190 1.8026 -1.0791
C 0.7181 -0.4021 1.8032
H 0.4201 -1.4505 1.8316
H -2.3103 1.4410 0.8202
O -0.4831 -1.1938 -2.6505
C -0.2896 -1.3541 -0.3973
C -0.5389 0.1049 0.2010
H 0.0200 -1.1471 -3.4439
C 0.3351 0.5516 -0.8732
C -0.5668 0.5800 1.6419
N -1.7303 0.7240 0.5146
H 0.9958 -0.2144 2.8296
H 0.0064 2.5165 -1.5028
C 0.3810 -0.7456 -1.6266
H 1.4179 -0.9228 -1.9369
19

H -1.7758 1.7755 1.0189
H -0.1813 -1.0965 2.3755
C -0.8533 -0.3422 -0.2216
O -0.0029 2.6186 1.4264
H 1.9865 0.6450 -1.5407
C -0.6306 -1.5923 0.2348
H 2.2823 -0.6056 0.8857
H -2.3423 -1.6505 -1.1225
C 0.9872 0.3077 -1.4746
C -0.7826 1.9467 0.6972
H 0.5530 0.1244 -2.4071
C 0.5655 1.7208 0.5034
C -1.3857 -1.1729 -1.1593
C 0.4772 0.3513 -0.1552
C 1.2325 -0.5534 0.7842
H -0.7449 -2.6221 0.3633
H 1.5775 2.0134 0.5700
H -1.1213 -0.8608 -2.1658
C 0.1588 -1.0073 1.3873
19

C -1.2524 -1.4768 0.8272
H 1.3829 -1.6337 1.2598
H -2.1886 -1.6565 1.3073
H 1.7804 0.0560 1.5168
N 0.8423 -0.5208 -0.8198
C 0.4538 0.1224 -1.8933
H 0.9001 0.5627 -2.7381
C -0.0455 0.4710 -0.1358
N -0.6889 -0.3607 -1.2299
H -1.0201 -1.2468 -1.6560
C 1.0305 -0.7175 1.7296
H -0.9829 -2.2359 0.1081
H 1.0083 -0.8132 2.8131
H -0.8890 0.2757 1.9236
C 0.1305 1.9195 -0.5446
C -0.3705 -0.3579 1.1878
O 0.3623 2.5745 -1.6620
H -0.3799 2.5211 -2.3260
H -0.0732 2.5169 0.3320
16

N 1.5090 -0.3647 -0.3641
O 0.9814 1.6889 0.6937
H -2.4228 -2.1424 1.4313
C -1.1438 -1.1595 0.4108
H -2.4421 -2.9445 -0.1244
C 0.3950 1.2728 -1.6307
C 0.9663 0.8228 -0.4685
H 2.3850 2.4040 -0.2513
H -0.3715 0.6965 -2.1174
N 2.1097 2.2600 0.7730
H 2.1912 -0.2184 0.3720
O -0.6876 -2.0417 -0.3731
H -1.3509 -0.0444 1.9695
C -1.9518 -2.2427 0.4603
H 0.6905 2.2563 -1.9428
N -0.8575 -0.2430 1.1617
16

C 1.8117 0.2091 -0.1699
O 0.6921 0.7867 -0.5470
H -1.5525 -1.7438 -0.8613
O 3.0410 0.4303 -0.2659
C -0.5217 0.5234 0.1383
H -0.8026 2.5389 0.1768
C -0.6792 -0.7796 0.7218
H -2.3668 1.6210 0.0355
H -1.5658 1.6800 1.6046
C -0.5986 -1.2734 -0.6992
N 2.4635 -0.5966 0.5042
O 0.2584 -1.5656 -1.6573
H -0.0705 -1.0695 -2.4451
H 2.1279 -1.2356 1.1275
C -1.3813 1.6712 0.5094
O -0.8557 -1.1967 1.8277
18

C 1.9425 -0.7695 -1.0564
H 1.8081 -0.2241 -1.9469
C -2.0802 0.1682 0.7242
H -2.7557 0.4701 -0.0812
H 2.9537 -0.8347 -0.7464
H -0.9969 3.0756 -0.4122
C 0.4212 -2.1884 0.7172
N -0.3817 2.4128 -0.6284
H -2.1876 -0.8277 1.1346
C -0.7337 0.2065 0.2860
C -0.1376 1.1311 -0.4041
H 0.6913 -2.6999 1.6283
N 0.3227 -0.7461 0.8822
C 1.0762 -1.1492 -0.0783
H -0.2793 -2.8017 0.1606
H -2.2707 0.8969 1.5071
H 1.7717 2.0543 -0.9263
O 0.8360 1.8258 -0.7601
19

C 0.3414 -0.9632 1.1426
O -0.9994 -0.6094 0.9194
N -1.6857 2.5818 -0.3302
C 0.9883 -0.2268 2.2208
H 0.2994 -1.4627 -1.8213
H 0.5074 0.5533 2.7732
C 1.4843 0.9312 -0.0464
H -2.4774 -0.0544 -1.4414
H -1.0773 -2.0428 -0.9972
C 0.0694 -0.2855 -0.0926
C -1.1365 1.5096 -0.6371
H 0.6232 -2.0067 0.9894
H 2.3058 0.7279 -0.7160
C -0.5286 -1.1263 -1.1999
H -1.0461 0.3607 -2.4313
H 1.8625 -0.6918 2.6279
C 0.1215 1.1385 -0.3090
C -1.4104 0.1135 -1.4434
H 1.7581 1.5531 0.7926
12

H 0.6778 1.2811 0.9684
C 0.2859 0.3591 0.8130
N -0.2335 -0.8655 2.7750
C 0.0252 0.5385 -2.7226
C -0.3061 0.1841 -0.6102
H 0.4756 0.6767 -3.6092
C -0.8696 0.5111 -1.9142
O 0.2495 -0.6896 -0.0499
F -0.7454 -1.7783 2.2899
H 1.6536 -0.6345 2.1406
H -1.8806 0.8567 -2.0715
C 0.6676 -0.4393 1.9907
19

C 0.2719 -0.9596 -2.4242
C 0.3416 -1.0778 -0.7668
H 0.3837 -1.9250 -3.0090
C -1.0125 -0.3065 -2.8796
H 1.4092 2.1984 3.5519
H 1.5552 0.1502 0.7377
C 0.5504 -0.1176 0.4346
C -0.0632 1.6929 1.9173
C -0.6563 0.4538 1.2033
C 0.7451 1.5292 2.9867
H -1.1024 -0.0094 -3.9626
H 0.8512 0.4960 3.3421
O -2.0483 -0.1626 -2.2119
H -1.7601 0.5834 1.2654
H -0.7801 -1.8827 1.1096
H 0.9290 -2.0035 -0.7131
H 1.1947 -0.3805 -2.6746
H -0.2834 2.7139 1.5638
C -0.5257 -0.9927 0.5293
18

H -1.6070 0.2623 1.5271
O 2.6680 1.7370 0.3435
H -1.8863 -0.7525 -2.1122
H -0.0706 2.2247 -0.3052
N -0.1763 -1.7639 -1.1709
H 0.5687 1.2929 2.1565
H 1.3184 -0.0613 -0.7741
C -0.2716 1.1840 -0.1717
N 2.4031 0.7074 0.0721
O -1.2416 0.7160 -1.0284
C -1.1426 -1.6271 -0.4078
H 0.1941 -1.9656 -2.0234
H -1.7080 -2.1515 0.2688
C -1.1970 -0.6492 -1.3330
C 0.6473 0.3570 1.6228
C 1.0374 0.4639 0.1515
C -0.6922 0.4470 1.0360
H 1.1564 -0.4210 2.1483
18

C 1.5158 0.0890 -0.6375
H 0.4788 2.0200 -0.6133
C -0.4745 -0.6618 0.5321
H 0.1439 0.3335 2.5939
C -1.3087 1.0297 -0.0481
C 0.9511 -1.1636 0.1285
H 0.9879 -2.1125 -0.4581
C -1.0839 -0.2489 -0.9063
H 1.5530 -1.4245 1.0317
H -1.0578 -1.4524 1.0522
H -2.1444 1.7113 -0.3027
H 2.5602 0.1887 -0.2403
O -1.3036 1.0668 1.4667
N -0.0836 0.4499 1.5926
H 1.6844 0.0690 -1.7491
H -2.0457 -0.7373 -1.1943
C 0.2712 0.9737 -0.3082
H -0.6442 -0.1304 -1.9399
17

H 2.3775 -0.7042 0.7551
N -0.3648 0.6903 0.6964
H 0.9723 1.9835 -1.3452
H -0.2318 -0.6564 -0.8801
H 1.3886 -2.4228 -0.5834
O 0.7749 -0.8517 2.2203
C 1.3225 -0.8744 0.8853
H -0.5755 1.4840 -2.1769
C 0.8213 -2.0728 0.2723
N -0.6016 1.7746 -0.1320
C -0.0289 1.6749 -1.2996
H -0.8076 2.6984 0.2145
H -0.1750 -0.9339 2.1100
C 0.1837 -0.4449 0.0790
H 0.4324 -2.8948 0.8667
O -2.9910 0.9444 -1.0825
H -2.4970 0.6059 -0.5999
17

N -2.6185 0.8775 0.1465
C -1.4777 1.7271 0.5229
H 1.8259 -2.3216 1.1255
H -1.3857 2.5716 1.1066
O 2.0431 -0.7858 2.3427
H 1.9435 1.2723 0.2708
C 1.1625 -1.7413 -1.9414
C -1.4154 0.9533 -0.5997
N -0.4364 -1.3009 -0.1189
H -3.4506 1.3843 -0.0007
C 1.0052 0.7998 0.3395
C -0.2791 0.8238 0.3315
C 1.6103 -1.2839 1.3906
C 0.6982 -0.6089 0.3860
C 0.5929 -1.2197 -0.9413
H -1.4251 1.0430 -1.6449
H 1.6070 -2.1906 -2.7157
19

C 0.2482 -0.4606 -1.0706
O -2.5306 0.4617 0.9218
H -2.1685 1.8295 -0.1714
C -0.1888 1.5549 0.6395
H 0.6695 -0.0296 -1.9930
H 2.1377 1.3434 0.3408
H 3.1175 -0.0251 0.5633
H 0.0644 1.7023 1.6878
C -0.2142 0.2304 0.1531
H 0.0686 2.4557 0.1091
C 1.1153 -0.3859 0.2810
H -1.1059 -1.7277 -2.1965
O -2.0706 -1.6323 -0.4526
H 1.2992 -2.2260 0.1113
O 1.4709 -1.5641 0.7879
C -0.9377 -1.2815 -1.2257
C -1.6093 0.9720 0.2946
O 2.3487 0.4952 0.7730
H -1.7147 -1.7123 0.4466
17

H 1.0729 -2.1724 -0.6454
H -0.7876 0.1352 -1.6485
H 0.5436 1.3690 1.5046
H -0.6316 -1.3709 2.0434
H -1.4563 -2.3159 -0.3602
C -0.0177 -1.9721 1.4275
N -0.7341 -1.9547 0.1607
H 0.5059 2.7006 -1.2768
H 0.9500 0.5330 -1.6064
H -1.2951 2.4837 -1.1208
H 0.6366 -2.6124 1.9861
C 0.5783 -1.5889 0.1225
N -0.1380 2.8560 0.4873
H 1.1457 -0.7219 0.2688
C -0.0304 0.7971 -1.3424
C -0.3081 2.1446 -0.7536
N -0.0341 1.6899 0.7531
19

H -0.7444 -2.3967 0.2151
O 3.1581 0.5020 0.5150
H 1.5438 2.8619 -0.0050
H 2.3311 1.9112 -1.4385
O -2.3546 -0.0592 2.1759
H -1.9194 -1.2725 -1.3730
C 1.6746 1.9821 -0.6009
O 2.7371 1.4877 0.4044
H -1.7634 0.0361 -2.5687
H -0.4063 -2.0880 1.8575
C -1.4311 -0.3761 -1.6477
N -0.4388 -0.0506 -0.8314
C 0.3698 0.0794 0.3036
C -1.8380 -0.7595 1.4627
H 0.7125 1.9031 -1.0628
O 0.8429 -0.6189 -0.5483
H -2.2694 -1.6367 0.8285
C -0.9935 -1.8172 1.0475
H 0.7889 0.3118 1.2660
16

H -0.3076 3.0389 0.5049
H 0.8371 1.1622 -1.0271
H 0.9773 1.0569 2.1050
C 0.4809 1.2628 1.2192
N -0.8115 -1.6104 -3.3055
C -0.3534 -1.5536 -2.2634
C 0.2139 -1.3037 -0.9794
C 0.3317 -1.4017 0.3338
C -1.1193 0.7884 0.1957
C 0.2515 1.0153 -0.1973
H -1.6984 -0.3586 1.5379
N 1.3937 -1.4446 -0.4715
H 2.2373 -1.1293 -0.2444
O -2.0449 0.1715 0.7968
C -0.4633 2.0344 0.5220
H 0.0752 -1.7284 1.2732
23

C -0.9475 -0.8406 0.4408
N 0.6783 -0.7675 -1.0072
H -2.1421 -1.6133 -1.0013
H -1.1972 -1.1565 1.4267
C -0.6088 -0.1753 -0.8753
H -0.6637 0.5873 -1.6297
C 1.8698 -1.3193 -1.4202
H -0.6004 -3.3718 0.6248
H -0.7132 3.5595 0.4082
H 0.6720 1.0144 2.0234
N -1.8974 -0.7516 -0.6005
H -1.7248 3.1749 1.6511
C 0.1680 1.7089 1.3157
C 0.1155 -2.9266 -0.0017
H 0.5797 2.2742 -0.7886
H 1.9317 1.9004 0.2775
H 2.4048 -2.1686 -1.0074
H 0.5838 -3.4934 -0.7467
C -0.8668 2.8160 1.1185
C 0.1861 -1.6039 -0.0309
C 0.9010 2.0584 0.1846
O -0.8563 1.7982 2.0223
O 2.1275 -0.7037 -2.3842
17

C 0.8015 -1.1250 0.3435
C -0.5640 1.9196 -0.9703
H 0.7239 -2.0561 -0.1879
H 0.7134 1.6304 0.8142
H 1.7807 -0.7154 0.1631
N 1.0535 1.3220 -1.1353
C 0.3602 -1.0227 1.7996
C -1.3790 -0.7492 -0.8692
H 0.9966 -0.3575 2.3956
H -1.1561 -1.2409 -1.8007
O -0.8418 -0.2959 1.3563
N -1.3100 2.4507 -1.6849
C 0.2554 1.2315 -0.0786
C -0.3872 -0.2043 -0.0356
H -2.3785 -0.7763 -0.4640
H 1.1065 2.0298 -1.8270
H 0.2248 -2.0405 2.1812
17

C 0.7001 -1.0697 0.1969
N 0.7533 -2.1408 -0.6021
F 0.6995 2.8832 -0.9175
C -0.9288 1.2262 -0.8236
H 0.6944 -2.9685 -0.0930
H -1.3944 -0.5053 0.7018
O -1.7569 2.1831 -1.2607
H -0.7508 0.3501 -1.3790
H -0.8883 -2.0937 1.0145
C 0.3346 1.8537 -0.3822
O -2.1367 1.5165 -0.2444
C 1.0689 1.5444 0.6523
H 1.6546 -0.6243 0.0728
H -0.1784 -0.8684 2.0245
C -0.5210 -1.0667 0.9998
O 1.6607 1.7191 1.5652
H 0.9891 -1.9391 -1.5252
20

H -2.7158 0.0908 0.5183
C 2.2445 -1.3509 0.5289
C -0.0654 -0.8176 -0.4302
O 1.7185 0.6951 -0.7764
C -1.6557 2.1368 0.0480
H -3.3508 1.1388 -0.7548
H -0.4205 -1.5992 -1.1088
N 1.2621 -0.3823 -0.0305
O -1.6027 0.5165 -1.5084
C -0.8009 0.4944 -0.3785
C -2.3811 0.8349 -0.2662
N -0.0172 0.0837 0.7380
H 1.0892 0.6850 -1.5102
H -0.0545 0.4826 1.6945
N 2.1908 -2.6484 0.2986
H 2.5893 -0.8341 1.4263
H 3.1715 -2.0189 0.0063
H 1.9753 -3.0020 1.2468
H -0.8309 2.7112 -0.3294
H -2.3458 2.7839 0.5877
20

C 1.2087 1.8933 0.5686
C -0.2827 -0.4125 -0.9646
H 0.3142 -2.2063 0.4268
O -0.9437 0.4879 -1.6182
H -1.8513 -0.6409 -2.9323
C 0.7469 0.2363 2.1936
H -1.6337 1.7525 0.7603
H 1.4829 2.5346 1.3562
C -1.1797 -0.9189 -2.1062
H -0.4011 -1.4647 -2.6807
H 1.3401 1.9144 -0.4747
H 1.4601 0.3918 2.9377
C -0.9606 0.9351 0.8953
C 0.3523 0.8168 0.9883
H -0.7951 -1.1000 2.2553
H -1.8744 -1.5147 -1.4838
H 2.0510 -0.5826 -1.1216
C -0.3914 -0.3866 1.5710
C 0.2871 -1.1909 0.1792
C 1.0702 -0.5446 -0.7503
14

O -1.6801 1.4702 1.4904
H 1.6533 -0.7182 -2.0502
H -2.0417 0.9963 2.2299
C -0.0631 -1.1523 0.0667
H -1.1966 0.0788 -1.2894
C -0.2020 -0.2872 -1.1028
H -0.8588 -1.7490 0.4732
C 0.8225 -0.0330 -1.9422
N 1.1106 -0.7306 0.7900
N 1.2097 -1.7642 0.2031
N 0.7819 0.5749 1.2688
N 0.2941 1.6793 1.0849
H 0.7408 0.8382 -2.5652
N -0.5706 0.7967 1.3428
16

H -2.0495 -1.5600 0.7140
C -0.7010 0.6043 0.5919
C 0.5797 -0.0529 1.3199
C -0.2722 0.2931 -0.8328
H -0.3651 2.1234 -1.6955
H 1.4103 1.4651 -1.4666
H 1.4791 0.4160 1.7637
H 1.5129 -1.5744 -0.2220
N -0.7170 -0.0118 1.9992
C 0.6736 -1.3560 0.4715
C -1.2823 -0.7846 0.6919
N -0.3821 -1.0486 -0.5898
H 0.4333 0.8820 -2.7732
H 0.5445 -2.2293 1.1485
C 0.3489 1.2675 -1.7299
H -1.2129 1.5664 0.6092
18

H -1.5732 -0.8629 -0.5747
N -1.7963 1.7139 -0.3894
H 1.5079 1.4350 -1.2578
H -2.9740 0.9494 -1.6456
C 0.4696 -0.5287 0.3363
O 0.5321 -0.3241 2.4945
N -0.9731 2.1485 -1.5269
H 0.5716 2.6902 -0.4622
C 0.0795 0.5450 -0.2999
H 0.1904 -2.6927 0.8749
H 1.0780 -1.1732 2.8360
C 1.2058 -0.8794 1.5000
N -0.7877 -0.3552 -0.2996
N -2.0830 1.4492 -1.5570
H 1.0345 -2.2216 -0.6286
O 2.1815 -1.6310 1.1278
C 0.8486 -1.9791 0.4092
C 0.4878 1.7164 -0.9371
16

C 0.1678 1.7760 -0.2430
H -1.8287 -0.5302 -0.2772
H -0.5780 0.0680 1.6064
O -0.2852 -2.3444 -0.4794
H 1.8987 0.2814 -0.3217
N -0.2999 -1.3953 -1.3281
H -1.9118 -1.9879 0.4742
H 0.7023 -1.1118 1.4968
H 0.4909 0.7586 -2.1609
N 0.3644 -0.1236 -1.6274
C 0.7774 0.3659 -0.2077
C -1.1179 -1.3258 0.0463
C 0.9114 1.5900 0.8741
O -0.4569 2.6524 -0.6844
C -0.0106 -0.5488 0.8786
O 1.1762 1.8756 1.9534
19

H 1.5213 -1.9855 2.6594
C -0.8443 1.5026 -0.7847
H -1.5114 -1.1185 1.1936
H 3.3327 -1.1828 1.1727
N 0.3497 0.1074 0.8260
C -2.0983 0.0926 -1.9434
C 1.4549 -0.3619 1.4609
C -0.7754 1.0792 -2.1967
O -1.5166 2.2348 -0.1168
N 0.1619 0.6586 -0.2548
C 1.9200 -1.0057 2.4774
O -0.1414 -0.7615 -0.4985
O 2.6215 -0.5444 1.1619
O -2.6292 0.0934 -0.8881
C -0.7608 -0.6277 0.6400
H -2.6012 -0.4138 -2.8021
H 0.3013 1.0782 -2.4416
H -1.1610 1.6982 -2.9871
H 2.3761 -0.5433 3.3220
18

O -2.1931 -0.6143 0.0021
H 2.3757 1.3157 -0.5620
C -0.0373 0.9125 0.9331
H -1.5364 -1.0534 -2.6818
H 0.0847 -1.5448 -2.1375
H -1.4317 -1.1461 1.7537
C -1.2168 -1.3414 0.7153
H 1.4565 -0.5117 1.2217
N -0.4091 0.6432 -0.2636
H -0.2411 0.1847 -2.5510
H 1.9981 0.7569 2.2096
C 1.3993 0.5794 1.3083
C -0.6529 -0.7323 -2.1119
C 1.6629 1.5379 0.2403
H 1.3468 2.5687 0.2984
H -0.8316 -2.3448 0.6472
H -0.7978 1.3661 1.5703
C -0.9760 -0.5764 -0.5921
17

C 0.6398 -0.0506 -0.3967
O 2.6336 -1.0510 -1.4302
H 1.5920 -1.6774 1.2420
O -1.3821 -1.2107 3.3658
N 1.3665 -0.9992 0.5787
H -1.5781 1.0702 -1.9840
C -0.3305 0.8027 0.0922
H -0.9428 -2.0045 0.7443
C 1.7978 -0.8453 -0.6020
H -0.4732 2.6393 -1.3925
H -0.0084 1.6120 0.7406
O -1.3628 -0.0069 0.6972
C -0.8677 -1.0833 1.3038
C -0.5892 1.2540 -1.5741
N -0.7227 -0.9176 2.5258
H -0.0575 2.2428 -2.0888
O 0.2852 0.2257 -1.8221
16

H -0.6327 0.0749 1.9368
H 1.9946 -1.5012 -0.7113
N 1.5715 -1.1852 0.1526
C -0.6913 -0.4921 -0.5958
C -0.0148 0.6875 1.2871
O -1.1781 -0.9640 -1.8314
O 0.0377 1.8944 1.7878
N 0.3832 -0.0869 -1.2963
H -4.2101 -0.9992 -0.8023
H 2.3793 -0.9462 0.7260
C 1.5531 1.3380 0.2766
H 2.4081 1.3764 -0.2989
C 0.6210 0.0064 0.1248
N -2.0423 -0.5351 -0.9097
O 1.0241 2.1594 1.0247
C -3.2032 -0.8271 -0.8707
19

H 0.6615 -1.0661 0.8991
H -0.3573 1.4331 -0.0579
C 1.6850 -0.4796 -2.4016
O 0.3397 0.5250 2.0914
H 1.8841 0.1922 0.8645
C -2.0564 -0.6661 1.5978
H -1.2172 -1.0320 2.1945
H -2.8659 -1.0551 2.1961
O 1.2480 -0.4525 -1.1560
C -0.1888 1.0015 0.8963
C 0.8463 -0.0089 0.9772
C 0.6115 0.4477 -1.8612
H -2.4489 0.3184 1.4088
H -1.8986 -1.0629 0.6051
H 1.8455 -1.5328 -2.5207
H -0.2874 0.2712 -2.3726
H 2.3394 0.0233 -3.0445
H 0.7541 1.4724 -1.6624
H -0.8946 1.6712 1.3460
20

H 0.1474 2.4232 0.3172
H 2.5155 -0.6623 -0.6687
H -2.1172 -0.7320 1.5255
H -0.5660 -2.1497 -0.6242
O -0.6668 -1.6698 -1.4357
H 0.9829 -1.3953 -2.4809
H -1.8360 0.5542 -0.7712
O 0.7913 -0.7883 0.7623
C -1.5034 0.1791 1.4914
H -2.0392 1.8975 0.3887
H -1.6304 0.7947 2.3929
C 1.5462 -1.1340 -0.4147
H 1.7600 -2.2124 -0.3172
H 1.2278 1.5151 1.6383
C 0.5745 -0.9694 -1.5674
C -1.5641 0.9446 0.2030
C 0.7143 1.5310 0.6549
H 0.3362 0.0653 -1.7395
C -0.2203 0.3421 0.7030
H 1.5472 1.4665 -0.0578
19

H -0.2139 -2.2920 -0.6398
H 0.9447 -0.7342 1.6096
C -2.5584 0.3704 1.0047
H -0.4139 -0.4097 -2.7372
H -2.3840 0.0352 2.0090
H 0.8997 1.7359 0.2604
C 2.7662 0.6861 0.5096
C -0.4439 -0.3474 -1.6506
H 1.2655 -1.5756 -1.1389
N -0.7008 -0.6279 0.4918
C -1.6032 0.3417 -0.0643
N -0.7732 0.8142 -1.1886
H -3.5283 0.7260 0.7477
C 0.2960 -1.3063 -0.6475
H 3.3590 1.5652 0.6549
H 3.2639 -0.2573 0.6634
C 1.4524 0.8043 0.3257
H -2.2579 0.8718 -0.8220
C 0.6301 -0.4005 0.6122
18

H 2.0343 0.9257 -2.2015
C -0.1364 -0.8444 0.3651
H -2.1568 -1.2473 -0.4923
O 1.0166 0.9805 -2.4068
C 0.8267 0.2483 -0.1002
C -1.3301 -0.5706 -0.3300
H 0.2271 2.2152 -0.5191
H -0.0165 -0.5979 2.4266
C -1.5706 0.8088 -0.4118
H -0.4490 1.6717 1.0621
C 0.0386 -1.4378 1.7178
H -2.4865 1.1170 0.0568
H -0.5436 -2.2099 2.2473
C 0.9695 0.0207 -1.5683
H 1.0450 -1.8893 1.6167
C -0.2184 1.3841 0.0316
H 1.8122 0.4552 0.3418
H 0.9380 -1.0301 -1.8355
19

H -1.4967 0.6623 0.8279
C 0.3760 1.1631 0.0626
H -0.5006 -0.2773 1.8968
C -0.4728 0.3290 0.9977
H -2.4267 -2.2764 1.1889
C 2.9871 2.3091 0.4583
H 2.6759 1.4777 -0.0122
C -2.0884 -2.2364 0.1736
H -2.2776 -3.1538 -0.3646
H 1.2095 -0.4082 -1.4966
H 0.4628 2.1229 0.5765
C -1.0150 -1.6392 -0.3703
H -0.5202 0.0494 -1.6778
C 0.4178 0.2604 -1.2099
O 0.8741 -0.0504 0.6770
O 0.6675 1.6051 -1.2640
H -0.1862 -2.0239 -0.8884
O -2.1607 -1.0007 -0.4869
H 3.4742 3.0874 0.9113
20

C 2.4861 -0.5459 -1.0730
H -1.3545 -0.4599 2.1928
C 1.4991 1.2534 0.5095
H 1.2304 1.9819 -0.2259
C -0.5757 -0.6012 -0.4701
N -3.3912 -0.2936 -0.1312
C -0.9166 0.4934 0.5451
O -1.3265 0.4327 1.8857
H 2.5422 -0.9528 -0.0515
H -3.2370 0.0944 0.7538
O 1.7460 0.1708 -1.6819
H 0.0125 -1.3377 -1.0238
H -2.8166 -0.2037 -0.9035
H -1.1839 -1.4090 -0.0033
H -1.2883 1.4125 0.1419
H 0.9733 -0.6547 1.0679
C 0.5070 0.1597 0.5117
H -0.6639 -0.0557 -1.4696
H 3.3468 -0.8642 -1.6321
H 2.4109 1.3795 1.0576
20

H 1.6158 -0.2327 2.0834
H 2.7200 0.2827 1.0769
H -0.2372 -0.7981 2.0217
O 1.2354 1.2271 0.4168
C -0.6770 -0.2313 1.2324
C 2.2801 -1.6246 0.2500
C 1.6499 0.0624 1.0506
O -2.4384 0.9785 -1.7326
N -0.1534 0.9601 -1.2963
H 0.2853 1.8285 -1.4314
H -3.2563 0.8475 -2.1600
H -2.5072 0.5655 0.5211
H -2.4207 -1.2131 1.0683
H 3.0727 -1.4052 -0.3347
H 1.5945 -2.2745 0.5770
H -2.0522 1.8354 -1.6453
C -1.9472 -0.2579 0.9139
H 0.8318 -0.6098 -1.6882
N 0.0959 -0.2038 -1.1739
C 0.3083 0.2636 0.2502
20

H -0.4546 -2.4073 -0.7758
H -2.4141 0.6131 -0.1774
H -0.8125 -0.7699 0.9795
H -2.2004 1.8843 0.9460
C 0.1596 -1.7761 -1.3719
H 0.3050 1.9788 -0.2841
C -0.4554 0.2196 0.9364
H 2.2393 -1.0909 0.9338
O 0.5376 2.5830 2.2180
C 1.5818 -1.5693 0.2508
C -1.6854 1.0956 0.4409
H 0.0683 -1.9028 -2.4230
H 0.3605 0.1923 1.6618
C -0.3645 1.2831 0.0997
H -0.2033 2.2367 2.1417
H 1.4575 -2.5975 0.4145
C 1.1128 -0.8572 -0.8098
H -0.1641 0.3987 -2.2395
O 1.7390 0.2869 -0.9277
H -0.8071 0.1990 -2.0138
20

H -0.4047 -0.1893 -2.4027
C 0.0765 1.7804 -1.0236
H 0.9786 1.2224 -1.3638
O -0.0950 -2.1957 -1.8369
H 2.3429 0.2817 1.3728
H -1.6562 0.5082 0.8028
H -1.8910 -2.4314 0.0873
C -0.8901 -2.1330 0.2615
H 1.5422 -0.0618 2.9156
C -0.4255 -0.8989 -1.6107
C -0.7182 0.3860 0.3045
H -0.3940 -3.0572 -1.4061
C -0.5210 -0.8913 -0.2704
N 0.1649 1.4857 0.4201
H -0.2571 -2.7329 0.8537
H 0.5773 2.4683 2.1914
C 1.5199 0.5246 2.0170
H -1.0073 1.7815 -1.2652
C 0.7314 1.5483 1.6403
H 0.3264 2.6045 -1.6878
21

C -2.6093 -0.0964 -1.8088
C 1.4197 1.0015 0.5015
C -1.6381 -0.3435 -0.5815
H 0.5585 1.6920 0.4485
H 2.0831 -0.1972 2.1050
H -0.6825 -0.6036 -2.9137
H -3.1311 0.8765 -1.5966
C -0.1307 -0.5174 -0.7518
N 1.2293 -0.2358 -0.3851
C -1.0512 -0.2539 -1.9470
N 2.6001 1.6484 0.4440
C 0.4589 -1.1605 0.4741
H 0.9930 -2.1200 0.5284
O -1.1983 -1.0190 2.4079
O -3.3300 -0.9919 -2.2709
H 2.7855 2.6281 0.3083
C -0.4173 -1.0344 1.5874
H -1.7754 0.5236 0.1041
H -2.0618 -1.2768 -0.1556
C 2.4769 0.6242 1.5043
H 3.4208 0.8559 1.9974
24

H -0.2979 0.6989 -2.2311
H -0.1369 -3.1622 -0.8523
H 1.5633 -1.6452 1.9123
N -1.0989 -1.4888 -0.1108
C 1.2354 -2.3343 0.6004
C 0.0720 0.0241 1.0544
H 0.4771 1.8854 1.8209
H 1.6963 -3.2787 0.3283
H -0.4599 2.8622 -3.1756
C -0.0644 -2.2961 -0.1838
H 2.0585 1.1127 1.5554
H -2.1107 2.9389 -2.5955
C -0.8531 1.4712 -1.7119
N -1.1977 2.5824 -2.6099
H -2.0218 -0.1679 1.3219
H 1.4841 0.2807 -0.8857
H -1.7197 0.9309 -1.3370
H -0.3390 1.9462 -0.8956
C 0.9844 0.9972 1.4063
N 2.0011 -1.4778 0.9701
F 0.0533 0.0313 2.5118
H -1.1623 -1.5810 1.9088
C -1.1080 -0.7515 1.1795
C 0.9449 0.4214 0.0191
18

C -0.8368 -0.8613 -0.7049
H 0.1948 1.3288 -1.6431
H 0.0340 -2.9242 -0.2057
O -1.6335 -0.1168 0.2348
H 2.1374 1.8957 1.0986
H 0.7735 -1.9434 -1.5198
N 1.5155 1.1811 1.4141
H -1.1181 -0.3217 -1.6160
C 0.3988 0.8428 0.4309
H -0.6573 -0.9599 1.6546
H -0.3680 2.3848 1.9398
C 0.2725 1.7420 1.4294
H -0.8309 -2.7735 -1.6862
H 0.7110 -1.1053 0.7930
C -0.2738 -0.5699 0.7029
C -0.1716 -2.2204 -1.0133
H -0.2142 2.7281 -0.6603
C 0.0668 1.6930 -0.6488
19

C -0.9753 0.9924 0.0245
C -1.1987 -0.2409 0.7903
N 0.8314 0.9498 2.3022
C 0.9861 -1.3320 -0.2867
C -0.5204 2.0480 -0.6882
C -0.1381 0.5724 1.3386
H -1.9283 0.9891 -0.5518
H 2.0231 -1.1283 0.0045
H 1.5440 1.3527 1.6703
H 0.0962 -1.6817 1.7334
O -0.1779 -0.0827 -2.2621
H -0.1322 0.6386 2.7591
H 0.8119 -2.4116 -0.2914
C 0.1104 -0.9386 0.9444
H -0.7212 0.1183 -3.0062
C 0.6919 -0.8166 -1.6752
H 1.3562 -1.3031 -2.3646
O -0.4721 2.8402 -1.4622
H -2.1871 -0.5662 1.0212
12

C 0.0272 -0.9096 -0.7047
H 2.4547 -0.1708 1.1919
H -0.7363 2.1746 0.1293
N -0.0763 0.4884 -0.4642
C 1.5516 -0.6661 1.1921
H -1.9469 0.8932 0.4421
H 1.4540 -1.5688 1.7094
C -1.2636 1.3229 -0.3080
N 0.4820 -0.2128 0.4787
O -1.8276 1.4564 -1.3870
H -0.7225 -1.0061 -1.4803
H 0.6037 -1.8011 -0.7994
21

C 1.0759 1.0092 0.0169
H 1.1641 -2.7351 0.2275
C 1.3300 0.1827 1.1633
C -1.1005 1.4441 1.1949
H -0.4791 -1.4089 0.9247
H 2.2842 -0.2970 1.0477
H 0.9365 -0.4665 -1.7197
H 1.3693 1.8458 -0.5936
H 1.0594 -0.1867 2.1536
H -1.9118 0.9467 1.6861
H -1.6647 1.8942 -1.2855
C -0.1034 0.5713 0.6598
C 1.6147 -1.9991 -0.4117
H -2.7470 0.5924 -0.9042
C -0.4713 -0.8158 0.0255
H -1.4636 0.2581 -2.1197
H -1.0224 2.5047 1.1183
C -1.8710 0.8779 -1.3771
C 0.8227 -0.9271 -0.7613
H 2.6179 -2.1938 -0.7004
H -1.4400 -1.0971 -0.3453
18

C 0.9634 1.2900 1.0414
C -1.3780 1.9187 1.1696
H -0.0498 2.4294 -0.4261
H 1.9887 1.6697 1.2141
H -0.5846 -2.6147 -2.1428
C 0.4062 -2.2898 -0.3362
H -2.7929 0.6593 1.4876
H -1.9116 2.7565 1.5872
H 1.1393 -1.9291 0.3196
O 1.4914 -1.8972 -2.1290
N 0.6068 0.1928 1.1101
C 0.1555 -1.9601 -1.6806
H 0.2474 3.3321 1.1017
H 2.0268 -2.6594 -2.1101
O -1.9960 0.8061 0.9919
H -0.1740 -0.9588 -1.9361
H -0.0872 -3.1203 0.0694
C -0.0516 2.3747 0.6683
13

C -0.5615 -1.9910 -0.3345
H 1.0812 1.5232 -1.5670
C -0.3916 -0.7057 0.4714
H -0.6478 -3.9234 -1.7271
H -0.8445 -0.9770 1.4420
N -0.8463 1.0680 0.5873
H -1.2275 1.5025 -0.2723
C -0.6451 -3.0208 -1.0466
O 1.8484 2.5363 -0.0342
H -0.7324 1.5812 1.4730
H 1.3245 0.2614 1.0740
C 1.1604 1.6537 -0.4705
C 0.4822 0.4915 0.4045
18

C 1.3184 -0.6566 1.4697
H 1.6114 0.0769 -1.3095
H 1.8236 -1.2584 2.1175
C 1.4266 0.5191 0.6850
C 2.1520 -0.2233 -0.4494
C -0.8585 -0.2553 -0.7160
C -2.0419 -0.2764 -0.5271
H 2.3603 -1.2712 -0.3528
H -0.6608 -0.0339 1.8040
H 1.6494 1.5210 0.9056
C -1.5774 1.0557 -0.6717
H -1.4735 1.6810 0.1592
H -0.1691 -0.9772 -0.9419
H -3.6837 -0.4876 -0.9591
O -3.0627 -1.1085 -0.6471
C 0.2511 -0.0149 1.3361
H 3.1243 0.2145 -0.4962
H -2.1894 1.4953 -1.4064
19

C 0.8317 0.9540 -0.6954
C -0.7443 0.9218 0.2232
C 0.3333 -0.4358 -1.2360
H -1.9486 -0.7742 2.1872
C -0.3809 1.8128 -1.0096
O 1.3088 -0.8515 0.9796
C -1.1437 -1.3508 1.8524
C 1.5993 -0.8329 -1.5624
H -0.3312 -1.4439 2.5013
C 0.3665 -0.1628 0.2189
H -1.2424 -2.0441 1.0793
H 1.1085 -1.7337 1.2786
H -0.7059 1.5587 1.0988
H -0.4847 -0.7062 -1.8681
H -1.7051 0.4453 0.0931
H -1.1456 1.6753 -1.7636
O 2.5547 -1.2908 -1.6929
H -0.0791 2.8498 -1.0211
H 1.8087 1.4089 -0.6634
18

C -0.2641 -0.4080 -0.1481
H 2.0437 0.0891 -1.2200
C 1.5896 -0.1301 -0.2646
H -1.0253 -2.4438 0.1544
H -1.6669 -0.7093 -1.6578
H 0.5066 2.1496 -1.1774
H 2.2631 -0.6292 0.4267
H -1.0078 -0.2875 2.0406
C -0.2228 1.5123 -0.6739
C -1.2453 -0.1513 0.9991
O -0.7351 -0.9888 -1.5077
H -1.2917 1.5942 -0.6685
C 1.0249 1.6124 1.4029
C 0.5922 0.7682 0.3148
H 0.6090 -2.4243 -0.5732
H -2.2824 -0.0025 0.7307
N 1.3985 2.3084 2.1940
C -0.2863 -1.8594 -0.3721
18

H -0.0083 -1.6693 -1.3902
O -1.2870 2.0445 -0.7781
H 0.4031 1.1298 1.6848
H 0.2719 0.0235 -1.8050
H 3.9049 -0.3936 -0.9287
C 1.5916 -0.6517 -0.2383
N -2.8315 -0.0558 0.9616
C -0.4689 0.9459 1.1963
C 2.1688 -1.1981 -1.3224
C 0.6428 -0.8229 -1.2877
C -1.8378 0.8758 1.4465
H -3.5110 -0.0735 1.6931
H -2.0640 1.4400 2.3090
C -1.1358 1.4786 0.2425
H 2.5926 -1.9236 -1.9219
H -2.8833 0.0435 -0.0333
H 1.4574 -0.9062 0.7543
O 2.9946 -0.2871 -0.5825
23

H -2.8772 0.5927 -0.1477
H 1.0950 2.1674 1.3331
C 0.4284 -1.3761 -1.5425
H -1.7671 -2.0262 -0.9753
C 0.3486 -0.4731 1.1101
H -2.5314 -0.8384 -2.1033
C 0.8181 -0.1268 -0.9150
H 1.5802 0.3023 -1.5522
C -0.5424 0.6076 -0.7825
O 0.8350 -0.4225 2.4270
N 1.5234 0.1979 0.4289
H -0.0555 -1.4795 0.9367
H -0.6615 1.3785 -1.5008
C -1.9366 0.1035 -0.3239
H 2.5316 1.2400 1.8902
H 0.6696 -2.2746 -1.0198
C -2.0600 -1.0236 -1.1757
H 0.0228 -1.5215 -2.5017
H 0.0945 -0.1103 2.9646
H -1.1322 1.1084 1.4396
C 1.8973 1.4797 1.0317
H 2.5178 2.0356 0.3304
C -0.7986 0.4588 0.6483
18

C -1.0277 -0.7603 0.9522
C -0.0482 -0.4254 1.9648
H -2.1970 -0.6548 -2.5277
H 2.3202 1.2452 0.5601
H -0.4060 -0.5807 3.0642
H 0.3159 1.3982 -1.7374
O 0.9845 -0.5117 -1.0441
H 1.3895 2.6294 0.0043
C -1.0637 -1.6063 -0.3546
C 1.7629 1.6397 -0.2881
C -1.4295 -0.6033 -1.8156
H -1.7544 0.0509 0.8538
H 0.8222 0.1707 1.9404
O -1.4524 -2.6972 -0.7389
H 2.5134 1.7985 -1.0456
C 0.6245 0.7824 -0.9049
C -0.3794 -0.4411 -1.0648
N -0.9748 -1.4342 2.1820
19

C -0.2854 -2.4378 -1.5421
H 1.3682 2.6337 2.3081
H 0.0637 -0.0730 2.4615
H 0.7497 -2.6756 -1.8369
H -0.7772 0.5839 -2.1784
O 0.2010 2.6011 3.9670
N -0.6286 -1.4053 -4.5413
O 0.5757 -0.3093 -0.2335
H -0.9882 -2.7520 -2.3178
C 0.4835 2.1185 2.6767
H -0.2409 1.8220 4.3102
N -0.3631 -0.8341 -3.6100
C 0.1122 0.8756 1.8963
O -0.8380 1.7671 2.1776
C -0.4239 -0.4136 -2.3397
C -0.0805 -1.0358 -1.2285
H -0.5676 -2.8680 -0.5692
C 0.6425 0.7276 0.5075
H 0.9969 1.6753 0.0923
18

C -0.7549 -0.4289 1.1671
O -0.5880 2.4348 1.6686
C 0.1611 1.2268 -0.5508
N 0.1080 -1.4534 -0.8338
H -1.3017 2.1568 2.2248
O -1.8196 -0.1642 0.2630
H 2.1561 -2.2353 -2.0173
H 1.8790 -0.6877 -1.4259
H -0.7770 -0.3748 2.2138
H 1.2059 1.1682 -0.3373
O -0.1195 -2.6309 1.1122
C -0.6759 2.1597 0.3142
C -0.1781 -1.6308 0.4280
C 1.4029 -1.6590 -1.4214
C -0.7686 0.6902 0.3094
H 1.2067 -2.7469 -1.2705
H -1.1351 2.9498 -0.2368
H -0.0012 1.2256 -1.6073
14

H -0.5106 -1.0563 1.4497
C -0.4774 -1.5407 -0.7918
H 1.9916 -0.4957 0.1544
O 1.1829 -0.4427 0.6108
H -2.0111 0.0191 -0.7688
C -0.9620 -0.0336 -0.4032
H 1.7778 3.2972 1.4698
H 0.3705 -2.0411 -1.2394
H -1.2204 -2.3259 -0.6381
C -0.0523 -0.8413 0.5040
O -0.7330 -0.4709 -1.7663
C 1.0936 2.6739 0.9641
C 0.2560 1.9497 0.4900
O -0.7057 1.3084 -0.0349
15

H -0.2140 -1.0978 2.1527
N -0.6546 3.2896 -1.2408
H 0.5360 0.5926 1.9282
H 1.1814 -2.2065 -0.1215
O -1.0261 -0.2757 -2.4248
C -0.6172 0.8698 -0.6078
H 1.4372 -0.3005 -0.2616
C 0.2385 -0.1002 0.1574
O -1.5917 0.3006 -1.3420
H 1.8427 -1.3363 1.2619
H -1.2311 0.2002 1.7199
C 1.1908 -1.3144 0.4373
H -0.1676 -0.6634 -2.2928
C -0.7138 2.1981 -0.9417
C -0.2104 -0.1560 1.5756
14

H 0.0504 2.1399 -1.6187
C 0.9104 -0.2939 1.4660
C 0.3414 1.4247 -0.8637
H 2.1396 0.0673 -0.8301
O -0.0900 1.6738 0.3991
C 1.0890 0.2616 -0.8155
H -2.0527 -1.7810 0.3150
H 1.2084 -1.3329 1.2827
H 1.5461 0.1689 2.2477
C -0.7524 -0.3263 -0.1268
O 0.1778 -0.6707 -1.2117
H -2.4912 -0.6585 -1.0119
N -0.2264 0.3216 1.0666
N -1.8504 -0.9946 -0.2988
19

O -0.7401 0.0046 -1.3044
H 1.6923 0.6579 -1.7143
H -2.0082 0.9804 0.5689
H 0.2797 -1.8181 -0.5899
N -0.1707 1.2682 -0.7477
H 2.3047 0.4018 0.7104
C 0.2677 -0.8728 -1.0485
H 0.4233 1.9975 0.9767
H 0.3316 -0.2211 -3.3054
H -1.4061 1.0944 2.1995
N 0.6262 -0.9988 -3.6796
O -0.7824 -1.3022 2.6245
C 1.3100 0.1214 0.9738
H 1.2303 -0.8317 1.4570
C -1.2044 -0.9067 1.5700
C -1.2654 0.5745 1.2474
H -1.7481 -1.4923 0.8114
C 0.6983 0.3777 -1.4574
C 0.1613 0.9656 0.7077
17

N 1.7722 0.2608 0.2949
N -0.5987 -1.2019 1.4264
H 0.9270 -2.5507 1.1040
C -0.0769 -2.2804 0.7904
H 1.2314 -0.8247 -1.6551
C -0.6989 1.3641 0.2346
H -1.2103 -1.1609 -0.6824
O -1.9059 1.3739 0.8832
C 0.3541 0.3093 0.1996
H -1.2792 1.9323 -1.7155
H 0.2872 2.7139 -1.1587
C -0.4626 1.9668 -1.0264
C -0.4256 -0.9823 0.0220
C 1.0150 -0.5046 -0.6785
H 2.6900 0.5492 0.1147
O -0.9227 2.1510 1.3042
H -0.6959 -3.1160 0.5427
13

C 0.1935 -0.6324 -0.6424
H 2.1953 2.1611 0.8235
O 0.8775 0.4268 0.0991
H -1.4306 -1.8742 0.8581
C -0.7392 -1.5529 0.1169
N 1.4492 1.5665 0.9219
N -0.3410 -1.8199 -0.8997
O -2.4840 -0.3324 -2.3872
C 0.6462 0.6612 1.4314
H 0.6411 1.9179 1.7351
O -1.9600 0.0527 -2.7238
O 0.3687 -0.1049 2.2862
H 0.5833 -0.4694 -1.6190
12

H 2.0922 1.1219 -0.6304
C -0.9456 -0.0341 0.9178
H -1.5727 -0.5098 1.5425
H -1.0400 -2.2650 -2.1675
O -2.0555 -1.8129 -0.5319
C -0.1438 -0.2344 -0.0342
C 1.2576 1.6349 0.8239
C -1.1103 -1.7227 -1.2511
N 1.8768 1.9610 -0.2544
C 0.2456 0.7495 0.7124
O 1.4644 2.0777 1.9386
N -0.0687 -0.9661 -1.0658
17

N 1.8885 0.6390 2.0365
H 4.7112 0.5494 0.6834
C 0.8675 -1.0544 0.1148
H -3.5022 0.4056 -0.7389
N -1.2538 -1.3459 -1.0384
C 2.5472 0.3070 0.9855
H 2.3693 -0.1987 -1.1090
H 2.2593 0.1273 2.8023
N -0.2220 -0.9488 -0.5631
C -3.9237 1.3054 -0.9259
C 1.9394 -0.2601 -0.1562
H -4.5965 2.8570 -0.4952
H -1.5376 -2.0862 -0.4032
H -1.8824 -1.0905 -1.7533
H 1.0277 -1.8125 0.8545
O -4.4943 2.2011 -1.2130
N 3.8024 0.4052 0.9189
23

O -1.2063 -0.3091 0.2447
H -1.2657 -2.1534 -0.8341
C -3.4369 -0.5492 -0.0134
C -0.6150 -1.4334 -0.3443
C 1.3146 1.3039 1.0770
C 0.5877 -0.9691 -1.1692
H 1.6985 1.7910 -0.9680
N 0.1931 -1.9726 0.8469
H 1.2938 1.7166 2.1052
O 0.9112 -2.7892 0.6262
H 1.7518 0.3216 1.3178
O -0.4043 -0.0446 -0.8023
H 2.3181 2.9764 -0.0741
H 3.1961 1.9755 0.7494
H 3.0259 1.1261 -0.5219
H -3.2988 0.0873 0.8738
H 0.2900 1.6438 0.8064
H -4.1794 0.1036 -0.4825
H -3.5281 -1.4643 0.5664
H -3.0942 -0.9917 -0.9623
H 1.6001 -0.9628 -0.8385
C 2.3122 1.8371 0.0028
H 0.5356 -1.2435 -2.2061
19

H -0.5895 0.4920 2.5585
O 1.2394 0.6062 1.5693
H -2.1257 0.7328 0.4548
H 0.4863 -1.8336 2.2435
C -0.1866 0.1949 1.6236
H -0.6671 -1.9251 0.7828
C -1.0906 0.8791 0.2927
C 1.3966 -1.0325 -0.4079
C 0.8320 -0.3922 0.7172
C -0.5133 0.7829 -0.9559
C -0.0245 -1.3670 1.4336
H -0.4044 -1.1638 -2.0919
O -0.6205 -0.4069 -1.6398
H -1.0321 2.8370 -0.7981
H 0.4894 2.4439 0.0597
C -0.4498 2.0788 -0.3035
C 1.8511 -1.5887 -1.3261
H 2.2921 -2.0304 -2.1574
H -0.8829 0.6924 -2.0551
20

C -1.4884 -1.3685 -0.9327
H -1.3325 -1.8025 -1.9507
H -1.1430 -2.7431 0.4971
H 0.5816 3.2355 -0.7332
C -0.3239 -0.4763 -0.6019
H -2.4881 -0.8936 -1.0577
N 0.1527 2.6846 -0.0251
H 2.3470 0.4306 -0.1332
H -1.7847 0.1982 1.4276
C 0.1322 0.5955 0.7844
O 1.0584 1.1490 1.7407
O -1.6818 -1.9571 0.3839
O 2.6739 -0.3111 0.3752
N -1.1225 0.8791 1.1997
H -0.2700 0.3399 -1.2983
N -0.4948 1.7695 0.4311
O 0.6611 -1.4761 -0.8012
H 0.9692 2.1189 1.8528
H 2.2916 -1.1808 0.3286
H 1.2621 -1.1918 -1.4871
19

H -0.8139 0.2643 1.7175
C -0.7869 1.7463 0.0901
H 0.7109 -1.8532 1.3467
C -0.9226 -0.8425 -0.7519
H -0.9087 3.6687 -0.4895
C 2.6436 -1.0161 1.3785
H 1.0632 0.2790 -0.6783
H -1.7147 0.7205 -2.1906
N -1.1148 2.6854 -0.4752
O 2.5792 -1.5290 0.2027
C -1.6805 -0.3175 -1.9277
H -0.5132 -1.7595 -1.1657
H 3.3723 -0.7837 2.1057
H -1.6679 -1.0693 0.0098
H -2.2992 -0.9394 -2.5571
C 0.3775 -0.2595 0.0097
H 0.5008 1.3863 1.5823
C 1.3745 -1.1715 0.8174
C -0.1995 0.7907 0.9755
25

C 2.3751 -0.5639 -0.1622
C 1.7578 0.7224 -0.9658
H -0.7022 0.9057 -2.1186
O 1.6564 1.8841 -0.5576
H -0.6582 2.5493 -1.6297
H 1.6415 -1.3119 -0.5326
H 1.1101 2.6390 -0.3061
H -3.3113 1.4456 -0.7553
C -1.1035 -1.1382 1.7311
C -1.0386 1.5854 -1.3721
H 2.2271 0.0119 0.7725
C 0.2237 -1.7298 1.4225
H -1.7772 -1.8761 -0.4773
H 0.3398 -2.7729 1.1944
H -1.2367 1.3938 0.7907
H -1.3347 -0.5495 2.5837
O -0.4300 -0.8296 0.5507
H 3.2778 -0.4760 -0.7699
C -1.4651 1.2784 -0.2038
H 2.9203 -1.3199 0.5037
H -2.7982 -1.0865 0.8639
H 1.6581 0.5309 -2.0107
O -2.4549 1.3428 -1.1259
H 0.9343 -1.3904 2.1445
C -1.8116 -1.2444 0.4299
23

C 2.0075 -1.0058 -0.2643
H -3.2935 0.8806 0.1624
H -2.1097 0.2481 1.3554
H 0.8002 -0.2381 1.9594
H -0.8301 -1.8735 -1.1560
C 0.2697 1.0709 0.0212
H -1.9354 1.9137 0.4859
C 0.1864 -0.8985 1.3552
H 2.4155 -1.9259 -0.6727
H -0.1802 -1.7251 1.9566
C 0.9530 1.1741 -1.1211
H 1.8365 -0.3817 -2.2685
H -3.0823 1.6012 1.8101
H -2.2744 -1.1448 -0.7818
C -0.2698 -0.3582 0.0126
N -1.2917 -1.0501 -0.8083
H 0.8424 1.9865 -1.8220
C -2.5688 1.1470 0.9461
H 2.5786 -0.6406 0.5822
H 2.9119 0.6419 -1.3093
H 0.3973 1.8694 0.7584
N 0.6731 -1.4105 0.1034
C 1.9640 0.1194 -1.3047
19

H -2.0963 0.8112 -2.1276
C -1.0886 0.5066 -1.9802
C -0.8227 -0.6707 -1.2133
C -0.3491 0.7687 0.3178
N -0.1209 0.5575 1.8154
C 1.1378 0.9548 0.1379
H -0.9612 1.6021 0.0084
H -0.3519 1.1493 -2.4181
C 1.3003 0.1254 1.3130
C 0.8901 -1.2891 0.6228
H 2.0631 0.4453 2.0207
H -1.6719 -1.3499 -1.2753
H -0.2325 1.5010 2.2256
H 1.8427 1.7380 -0.1580
H 1.9269 -1.4977 0.2304
C -0.6029 -0.7045 0.4716
H 0.0811 -1.1540 -1.5802
H 0.5193 -2.3467 0.5783
H -1.4634 -1.1472 1.0109
23

C -1.7029 -0.2102 1.3544
H 0.4702 -3.0517 1.4078
C 0.3604 -2.3751 2.1492
C -0.9512 0.1819 -0.9577
O 1.4886 -0.9288 3.0253
H -2.2474 -1.1120 1.1615
C -0.3766 -0.2905 1.4852
H 1.8937 0.8863 1.0303
H 0.5204 2.3258 -1.1778
H -1.4403 1.1515 -0.6660
H -0.1443 -0.8024 -2.8640
H -2.2771 0.6874 1.3965
H 0.4833 1.9496 1.1616
C 0.1790 -0.1365 0.0979
C 0.5636 -1.1463 2.2771
O 1.8883 0.9413 -1.7001
H -0.5830 0.9048 -2.9658
C 0.9559 1.1516 0.5590
C -0.7057 -0.0113 -2.3631
H 1.8582 -0.0184 -1.7017
C 0.9994 1.4270 -0.8686
O -1.9283 -0.4547 -1.7312
H 0.6959 -1.0695 -0.1102
17

O -0.3578 -1.7200 -1.7602
H -1.8250 1.1321 0.8738
H -0.6290 2.3020 1.4252
C 1.6708 1.0749 -0.4588
C 0.6548 -0.7429 -1.3603
C -0.0988 0.5669 -1.0369
H 2.6867 1.2957 -0.4765
H 1.4715 -0.8043 -2.0453
N -0.4484 -2.4606 0.3877
H -1.0615 0.7999 -1.4331
C -0.9290 1.2459 1.4858
H -0.9141 -0.3894 2.1189
N 0.6185 1.7397 -0.4256
H -1.0662 -2.9672 0.9336
N 0.8255 0.0817 -0.0352
C -0.2047 -1.6263 -0.5014
N -0.3933 0.4720 2.3085
18

H 0.9991 2.0252 -0.0814
N 2.4702 0.9670 0.8138
N 0.0102 0.4560 0.7872
H -1.4377 -2.8061 -0.5883
N -1.2477 0.5020 1.4282
O -1.6680 -1.8820 -0.8500
C -0.3930 -0.1303 -1.6228
C 1.1869 1.3555 0.7764
C -0.7216 -0.6526 0.7857
H 0.3706 0.6282 -1.6391
H 1.0425 1.8407 1.7491
H -1.2612 1.4141 1.8768
H -0.2757 -0.6744 -2.5616
H -1.3791 0.3388 -1.5201
H -0.9918 -1.4932 1.4145
H 3.3301 1.1189 0.3274
H 0.4157 -1.7580 -0.4730
N -0.4496 -1.2496 -0.6229
13

C -0.4843 -0.8280 -0.7259
C 1.1525 0.2221 -0.4991
C -0.7829 1.4975 0.5171
H -1.3863 2.0876 1.0851
N 0.3913 -1.4378 0.1180
C -1.6651 0.0896 -0.4444
C 1.3018 -0.5677 0.8221
C -0.2583 0.5916 -0.2513
O -2.7590 0.4484 -0.7334
H 1.9858 -1.3833 1.1984
H -0.7802 -1.4192 -1.5714
H 1.9202 0.5279 -1.1787
H 1.3646 0.1715 1.6635
21

O 1.9364 -2.2856 -0.3468
H -0.0445 -1.8794 1.6232
C 2.0152 -1.5098 0.7291
C -0.2610 1.0586 -1.7440
H 2.3470 -0.4557 0.6455
H -0.1123 2.1251 -0.0493
H 1.1264 1.0318 0.2147
H -1.9700 2.1167 -1.3418
C -0.6520 0.1065 0.8521
O 0.3830 1.2903 -2.7876
H -2.2464 0.3655 -2.0281
C -1.6162 1.1449 -1.6325
H -4.0474 2.1116 1.2441
N -0.2428 -0.5761 -0.2116
C 0.3036 -1.1082 0.9296
H 2.5378 -2.8743 0.4171
H -1.0604 0.4246 1.7858
H -3.4285 2.2647 1.0546
H 2.3224 -1.6964 1.7409
C 0.0996 1.0369 -0.1559
H 2.6098 -2.6918 -0.9391
18

H -0.0806 3.7874 0.2627
O -1.1146 -1.7141 0.0413
H -0.7121 1.5766 -1.2807
H 0.8692 -1.9998 1.4242
H 0.2306 2.9977 1.7055
O 0.6067 -0.5278 -2.2126
H -1.8927 -2.2465 -0.1687
C 1.0616 -1.0764 -1.0189
H 1.4104 -2.0796 -1.1102
C -0.0360 2.8705 0.7068
C -0.0751 -1.6208 1.1722
C -0.0341 -1.1953 -0.1154
C -0.5458 1.5694 0.7954
H -0.6369 -1.4357 2.0068
C -0.4491 1.8777 -0.3304
H 0.3469 -1.2343 -2.7741
H 1.8676 -0.4846 -0.6326
H -0.8160 0.9354 1.5288
17

O 1.3336 -0.7847 3.5204
O 1.3818 -1.0230 1.2533
H -0.5735 0.2163 -2.3964
C 0.5834 0.2859 1.2872
H -1.4244 -1.0567 0.2385
H -2.2812 0.2835 -1.8471
H -0.0314 -1.4730 -0.9095
H -0.0074 0.9895 1.8909
C -1.0424 -1.0441 -0.7883
H -1.6707 -1.8026 -1.2565
C 1.3131 1.0403 0.0209
C 1.1876 -0.5877 2.3880
N 0.1925 0.4608 0.0901
H 2.2579 0.6911 -0.3804
C -1.2410 0.3254 -1.5324
H -1.0962 1.3944 -1.3662
H 1.1184 2.0843 -0.2126
13

H -2.7864 -2.6957 3.3197
N -1.8956 -2.5690 2.9081
H 1.4566 2.2333 -1.8876
C 2.4374 0.3805 -1.9099
C -0.5197 0.8130 -0.2339
N -1.1699 1.5717 0.5296
H 2.6094 0.1393 -2.9475
H 3.1671 0.1254 -1.1754
C 1.3592 1.1998 -1.6316
N -1.6478 -0.7124 1.3616
C -1.8579 -1.6605 2.2017
C -1.2566 0.2983 0.7625
N 0.1042 0.8764 -1.2973
14

H 1.2199 -1.4591 -0.8152
H 2.2097 1.7365 1.4690
C 0.0917 -0.3296 0.6496
O -1.0736 -1.1830 -1.7377
H -2.5091 -1.3765 -1.0075
H -0.5361 1.8056 0.9408
N -1.2740 -0.3911 0.4182
C 1.1558 -0.5880 -0.2476
H 0.8315 -0.8779 1.3109
C 0.2673 1.1127 0.8245
N 1.6223 1.2933 0.7460
C -1.7725 -0.5307 -0.9371
H -2.2885 0.3686 -1.3219
O 2.0557 0.4192 -0.2920
19

O 0.2161 0.4904 -0.9368
H -0.7376 0.5402 -3.3115
C -0.7080 0.6157 2.7694
H -2.6202 0.5056 1.0980
H -2.1054 -0.2050 -2.7331
O 2.2029 -0.2655 0.9082
C -0.4335 -0.5240 -1.5582
N -1.1288 -0.1322 -2.7173
H -0.0617 -1.5128 -1.6909
H 3.5611 -0.9966 -0.5670
H -0.0352 0.6059 3.5795
H 1.8602 -1.1947 0.3183
C 2.6520 -0.5024 -0.3258
N -1.9288 0.6486 0.3778
H 2.4704 0.2084 -1.1026
C -0.8363 0.2119 -0.2563
O 0.1429 0.1332 1.8185
C -0.8579 0.4628 1.2507
H -1.6522 0.9104 3.0792
19

C 0.3280 0.9388 -0.3898
C -1.0084 0.6216 1.6312
N 1.0905 1.8258 0.3268
C 0.1462 -0.5782 -0.4431
H 0.3209 -2.2495 0.9079
H 1.5445 0.3148 -1.9649
H -0.4842 1.4276 -0.9341
C -0.2738 -1.6203 -1.4112
H 1.6723 2.4694 0.7760
H -0.9099 2.4642 0.9059
H -1.3516 -2.0162 0.4114
H -0.7915 -1.0901 -2.2250
O -1.1112 1.9771 1.7448
H 2.2654 -0.2871 -0.4035
O -2.0282 0.1097 1.2707
C -0.3363 -1.7732 0.1662
C 1.4052 0.0922 -0.9224
H -0.1723 -2.6756 -1.7054
H -0.3058 0.0490 2.2586
14

H -0.6470 -2.0494 -1.9996
C -0.5186 1.5533 0.8698
C 0.3925 -0.6553 -0.2489
H -1.8424 -1.6390 0.0780
H -1.3016 1.6481 0.1432
C -0.9091 -1.2654 -0.2135
C 0.3950 0.4303 0.7019
C -0.4970 -1.1247 -1.4867
H -0.4954 -0.2972 -2.1750
N -0.7916 2.1587 2.0911
H 1.2441 0.5045 1.3135
C 1.8395 -0.7827 -0.3391
N 2.9553 -1.0884 -0.1995
O 0.1763 2.6073 1.4648
21

H -2.1229 1.8002 -0.5257
H -2.0661 0.0486 -0.8855
C 0.1705 1.8939 1.0371
H 0.0122 0.2154 2.8454
H -0.0292 -1.3937 -2.0860
N -0.5136 -1.8677 0.7029
H -0.4376 2.5514 1.6525
H 1.1108 1.1602 -1.6322
N 0.2572 -0.4510 2.1831
H -2.3478 0.5704 0.7834
C 1.1998 -0.6487 -0.1806
C 0.6620 0.4288 -0.9672
H 1.2433 2.0079 1.0455
C 0.9417 -1.3119 -1.5502
C -1.8199 0.8182 -0.1441
C -0.0550 -0.5855 0.8596
H 1.1179 -2.3718 -1.2302
H -0.8065 -2.0670 -0.2441
H 2.0864 -0.4972 0.4400
H 1.7322 -1.1004 -2.2917
C -0.3354 0.7998 0.1881
16

C 1.6368 0.8059 0.0124
C 0.0956 0.1684 0.6326
H 0.0601 0.7364 -2.7479
C -1.6362 -2.1550 1.6390
O 0.5820 0.6994 -2.0001
H -1.9771 0.8333 0.0954
N 0.9858 1.3916 -1.0388
N -0.2797 -0.8620 -0.2096
H -1.9761 -1.2245 1.5575
C -1.1117 0.2434 -0.0209
H -0.3310 -1.3797 -1.0329
H 0.2904 0.1306 1.6466
H 0.4934 2.2546 -0.9271
H 2.1471 1.3950 0.7376
H 2.2899 0.0071 -0.2359
H -1.2693 -3.0444 1.8919
18

C 0.1125 1.6011 0.5069
H 0.8447 0.4181 2.0481
C -0.9948 -0.2014 0.9369
C 0.4850 0.1580 1.0512
H 2.1323 -0.6959 -0.0676
C -0.5079 1.1410 -0.8589
O -2.0999 -0.7620 -1.2718
H -1.1420 -1.0934 1.5483
C -1.2751 -0.1535 -0.5939
H 0.6395 -1.7216 -0.0086
O 0.3129 2.5818 1.1884
H 1.6839 -1.6132 1.3703
H -1.2376 1.8532 -1.2595
C 1.2804 -1.0316 0.5524
H -1.8380 0.4664 1.1714
H 0.3780 1.1109 -1.5194
O 1.0138 -1.1390 -2.5410
H 0.2121 -0.9189 -2.2533
21

C 0.2501 0.0042 0.0418
C 0.6653 1.0581 -0.9410
O -1.6569 -1.3185 -0.8433
H 1.8337 -1.2170 -0.4863
O 0.1703 -2.1932 1.2977
H 1.0774 2.0052 -1.1652
C -0.5731 -0.5007 -1.1947
H -1.5052 2.8420 -0.4022
H 1.8497 0.4032 1.6796
H 0.0294 -0.9774 -1.9544
C 1.6334 -0.1477 -0.4794
H -0.0482 -0.9510 3.0332
C 0.3061 -1.0863 2.0134
H -2.0507 -0.8481 -0.1152
C -1.4152 1.7987 -0.1959
C -0.8977 1.0316 -1.3017
H -1.2625 1.2864 -2.2922
C 0.9401 -0.0521 1.3584
H 2.5792 0.3527 -0.4007
H -1.7093 1.5482 0.8076
H -0.2160 -3.0381 1.5406
16

C 2.1002 0.4420 -0.0622
N -3.3356 1.8530 -0.1308
H 1.3519 -1.8332 -0.8922
C 0.4869 -1.2260 -0.3306
H -1.3844 2.4725 -0.1349
O 1.9608 -0.8568 -0.3047
H -1.2091 -2.5801 -0.1663
H 0.7803 1.9005 -0.3438
C -0.2958 0.0279 -0.0696
H 3.0329 0.8918 -0.1614
H -0.2370 -0.9554 2.0455
C -0.1702 -1.0044 0.9767
C 0.8829 0.9130 0.0049
O -1.4429 0.5169 -0.4591
C -2.1380 1.6775 -0.1991
N -0.3828 -2.2393 0.2276
19

C -0.3586 0.0334 2.0851
H 3.0232 0.6671 0.4835
N 2.2216 0.4106 0.0272
C -0.8324 0.1688 -0.6996
H -0.5981 0.7018 -2.8297
C 1.5141 -0.1673 -0.7823
C -1.5922 0.0845 2.4852
C -0.2035 0.0154 -2.0802
N -2.0398 0.3723 -0.7260
H 2.2317 -0.0778 -2.2850
H -2.1077 -0.6758 3.0458
N -0.1747 0.0456 0.6145
C 1.1376 -0.6092 0.4726
H -0.3186 -1.0325 -2.3894
H -2.2143 0.9747 2.3677
H -2.7612 0.1923 -1.3681
H 1.3278 -1.5836 0.8953
H 0.4781 0.2206 2.7537
N 1.2669 0.2591 -2.0702
12

N 0.4435 0.6205 -0.5490
N -0.1412 -1.1449 0.1663
C 0.9940 -0.6396 -0.5891
H -2.6514 1.2887 0.3927
H 2.2885 -0.6368 -1.4715
H -0.2890 -2.0787 -0.0409
O -0.3102 1.7332 -0.3334
N -2.0202 0.8405 1.1013
C -1.0330 1.0399 0.4771
H 0.7385 0.1857 1.7414
O 1.4378 -1.1581 -1.6249
C 0.5425 -0.0505 0.7299
17

H 1.6138 0.2091 -1.1686
C 0.0452 1.6305 -0.0713
H 1.8299 0.5188 0.6385
H 0.8558 1.5269 -2.1237
C -0.9480 -1.0518 -0.9718
C -0.1653 -1.5709 -0.0026
H 0.2016 2.3423 0.6914
C 1.1688 0.6900 -0.0459
H -2.3941 -1.7272 0.3783
H -0.9547 1.7414 -0.3395
H 0.4251 -2.4210 -0.0390
C 0.8360 1.0844 -1.2220
N -1.6075 -1.2130 0.2423
C 0.0443 -0.2421 2.0871
O 0.6674 0.2736 2.8417
H -1.0662 -0.9640 -1.9886
C -0.5519 -0.8271 1.0937
20

H 1.2621 -1.2686 2.7598
H -1.0401 -1.6653 -1.8328
H -0.8226 -1.4617 1.7226
C -1.4185 0.3501 -0.0040
N -1.6378 1.4417 -0.7637
C 1.1354 -0.7352 1.8645
C -0.4440 -0.6477 -0.0784
H 1.6536 0.1469 1.6580
C -0.2937 0.3541 -2.0837
C -0.2333 -0.9997 -1.4940
H 1.4329 2.1958 0.9711
H 0.0019 2.5631 0.4420
C -0.2859 1.2511 -0.9405
H -2.1785 0.1933 0.7561
H -0.4447 0.5155 -3.1288
H 0.2514 -2.3727 0.6953
H 1.5146 1.1163 -0.1098
C 0.0483 -1.3468 1.0622
H 0.7495 -1.4568 -1.6695
C 0.7495 1.8267 0.1737
19

H -0.1109 -1.5644 -1.0823
C -1.3239 0.8766 -2.1534
O -0.2477 0.2362 -1.6461
O 2.8827 1.1084 1.7911
H -2.2916 -2.0803 0.5012
C 2.0512 0.8223 1.1276
C -0.4705 -0.6504 -0.5099
C 0.5900 -0.9863 0.8543
C -2.0170 -1.1869 -0.0700
O 2.7672 1.7246 0.4762
H -2.0581 0.1707 -2.6273
N -1.3707 -0.1540 0.6401
H -2.7465 -0.9229 -0.8314
O -0.6342 0.7718 0.2756
H 0.6328 -2.0771 0.8961
O -1.3867 2.0792 -2.2325
H 3.2659 2.4128 0.1898
H 1.2367 -0.3572 2.7339
C 1.2314 -0.2232 1.6670
17

F 0.2767 -1.0102 1.3953
H -1.8496 -2.0367 -0.0383
H 1.5303 1.6679 1.1970
H -2.5073 -1.5860 1.4816
C 1.7057 0.3594 -0.5992
H 1.6574 -0.7346 -0.8400
N 1.5971 1.4977 0.2482
C -0.5119 -0.5443 0.4307
N 2.6453 0.0414 -1.4796
C 0.6901 1.2274 -0.7966
H 3.2157 -0.6825 -1.7005
C -1.4816 0.2617 0.7473
O -0.5823 0.4580 -0.4860
H -3.0524 -0.8250 -0.0309
C -2.1816 -1.1591 0.5376
H 0.6462 2.0301 -1.4446
H -1.7977 1.0348 1.3781
21

H 2.4363 0.8307 1.1779
H 1.5872 -2.2898 1.3655
H -0.6375 -1.0460 -2.1115
O -3.1197 -1.0716 0.2517
H 0.3726 2.6460 -0.3117
C 1.4482 -1.6528 0.4868
H 2.5017 -1.4849 0.1478
C 1.3931 2.2557 -0.0649
H -1.0144 0.6374 -1.7202
H 0.7263 -0.0382 -1.7670
N 0.8551 -0.2775 0.7006
H 0.7727 -2.2838 -0.1060
C -1.9121 -0.6631 0.2714
C -0.4729 -0.4160 -0.0442
H 1.8918 2.9564 0.6579
N -4.1132 -0.9717 0.9390
O -1.2148 -0.0591 1.0421
C 1.4918 0.9539 0.6304
H 1.9422 2.2901 -1.0404
H -4.6191 -0.1267 1.0061
C -0.3155 -0.1892 -1.5115
17

C -1.6309 -0.1607 -0.5800
H 0.3886 2.4602 0.3480
C -0.3855 0.5779 -0.1953
C -0.4723 -0.9056 -0.6408
H 1.5091 -1.3382 1.9462
H 2.6561 -0.3843 0.6956
H 1.5410 -0.2269 -1.0771
H 2.9876 -0.7089 2.2575
H -1.6705 -2.0759 -1.9990
C 0.6256 -0.2360 -0.6358
H -3.4380 -0.1062 -1.0717
H -1.2299 2.4348 -0.4887
C 2.1360 -0.5117 1.6264
N -2.7366 0.3791 -0.6323
C -0.4064 1.9298 -0.0744
H 1.5591 0.3575 1.7867
N -1.4329 -1.4850 -1.2652
19

H 1.4974 -2.3822 -0.0493
H -0.9222 2.4738 0.5655
H -1.4275 -0.2501 -1.8842
C -1.4270 0.2856 0.2294
N 1.2372 0.8248 0.0213
H -1.3799 -1.7642 -0.9184
C -0.8706 -0.8563 -1.2016
H 0.5846 -1.3505 -2.8756
C 0.4947 -1.1584 -1.8221
H 2.5853 -1.5861 -1.2585
H 0.3731 2.2509 2.6004
H -0.9816 1.2024 3.1873
C 0.6712 -0.4531 -0.6052
H -2.4653 0.1034 0.3271
C 1.5924 -1.6627 -0.8560
C -0.4152 1.5619 2.3540
C -0.0683 0.3879 0.3301
C -0.8235 1.4683 0.9695
H 1.7453 0.9047 0.8862
19

C -0.0792 1.3121 1.6687
H -1.7089 0.9969 -1.4152
H 1.4682 -1.3803 0.7408
H 1.7816 1.1640 0.6007
N 1.0063 -1.0733 -1.3286
O -1.2596 -1.8276 -1.9938
C -0.9325 0.4383 -0.9344
H -1.5352 -1.1735 -2.7061
H 1.3601 0.4138 2.7702
C 1.1131 -0.6860 -0.0120
C -0.4516 -0.9614 -1.2934
N -1.3513 -0.6375 -0.1600
N 0.3982 0.6733 2.7779
H -1.4466 -1.2629 0.6198
H -1.1913 1.2864 1.6664
O 0.3373 1.1359 -0.9049
H 0.1199 2.3952 1.5456
C 0.8059 0.7094 0.3845
H 1.5656 -1.5229 -2.0262
18

C 0.5951 -0.5365 0.4305
N -0.7884 0.2444 1.7152
H -2.0569 0.5952 -0.5714
C -0.6863 -1.0370 0.8862
H 1.8498 0.9501 -1.0811
N -0.8546 -0.1932 -2.0133
N 0.4469 0.5481 1.5933
H 2.7355 0.3783 0.3686
H -0.5579 1.5658 -0.8152
H -0.5971 -1.9676 -0.9930
C -0.4320 -0.9261 -0.6549
C -0.9971 0.5468 -0.8570
N 2.4380 0.9686 -0.3371
H 1.5109 -1.0941 0.5855
H -1.5862 0.7825 1.9268
O -0.9772 -0.2535 -3.1161
H 1.0237 1.3420 1.5536
H -1.0663 -1.9139 1.3792
18

C -0.0093 -0.6493 1.8999
H -1.1382 -1.1075 4.5565
H -0.8722 -0.6402 1.2493
H -1.2020 1.2533 -1.2682
O -1.3336 -1.0395 3.6336
N -0.8500 0.4672 -3.1173
H 0.9357 1.1149 1.0186
H 2.1006 -0.2432 1.2343
N 0.5207 0.2232 -1.1409
C -0.3223 1.0512 -1.8885
C 1.1087 0.1513 1.4774
H -1.7392 0.8341 -3.3480
H 0.2391 1.9346 -2.2329
O -0.2474 -1.5307 3.0053
O 1.2974 -0.6234 -1.6523
H -0.3576 -0.1224 -3.7515
O 0.7485 -0.2903 2.9222
H 1.1213 -0.7832 -2.5975
16

C -1.0283 0.6651 1.4992
H -1.1809 2.3575 0.1098
H 1.1656 -1.6916 -1.3538
C -0.8793 1.4099 0.3770
H 0.9182 -0.0482 -1.8677
C -0.5499 -0.7128 -0.7175
C -1.4368 -1.7571 -0.7725
H 1.6922 -0.1120 0.8461
N 1.9425 -0.1228 -0.0861
H -1.8033 0.0301 1.7343
N -2.2239 -2.5326 -1.0568
H 0.7393 1.6426 2.0209
N -0.0478 1.4316 1.5554
O -0.9831 0.5375 -0.7091
C 0.9130 -0.7060 -0.9920
H 2.7624 -0.3912 -0.5873
17

C -0.3124 0.8749 1.0227
C -1.4039 0.6949 0.3047
H -0.4039 0.9260 -1.9685
H 2.1234 0.7964 0.6113
H -2.3239 0.2263 0.6836
C 0.1654 -2.3036 -1.1994
N 0.5540 0.0369 1.7141
H -1.5640 -0.2450 -1.5550
H 0.0900 -0.3431 2.4896
O -0.4117 -3.1938 -1.2237
H -0.0386 2.5235 -0.0861
H 2.1075 -0.9606 0.8382
C 0.5271 -0.1583 -0.5506
C 0.7060 -1.1661 -1.1762
C -0.7883 0.3533 -1.1352
N -0.5289 2.0325 0.5863
C 1.5024 -0.0941 0.6443
18

H -0.2567 2.6310 -0.6713
H 1.9131 -0.1423 0.9753
C -0.0982 -0.0686 1.7304
C -0.3320 -1.4612 1.4741
H 1.1735 -2.3771 -0.2725
C 1.0054 -0.1245 0.3628
C 0.5373 -1.5708 0.0378
H 0.7570 2.6754 -2.0899
O -0.3281 0.5431 2.7293
N -1.9399 -0.4635 -0.2612
H -0.5031 1.5712 -2.1969
H 1.7095 0.4893 -1.4108
H 0.1826 -2.0599 2.2062
H -2.2746 0.4454 -0.1392
C -0.8386 -1.1566 0.1078
H -1.8094 -1.7108 -0.3806
C 0.8992 0.8098 -0.7646
C 0.2029 1.9701 -1.4365
18

C -2.4821 0.8687 0.6395
H 1.2128 -2.6535 -0.0577
C -1.1570 0.3540 0.0966
N 1.3041 -0.3107 -1.4034
H 0.1029 1.5683 1.1953
H 0.8120 -0.2274 -2.2842
C 1.6403 -0.5945 0.0092
H -0.6197 -1.7605 -0.3877
C 1.1593 0.8611 -0.6126
H 1.2658 -0.4269 1.0325
C -0.0258 1.0868 0.2344
O -0.8959 -0.9134 -0.1065
O 1.7889 -2.0349 0.2314
H -2.7053 0.1652 1.4334
H -3.3402 0.8229 -0.0197
H 2.7191 -0.4196 0.0503
H -2.4792 1.9001 0.9581
H 1.7001 1.7142 -1.0091
23

H -1.4799 0.0129 -1.1511
H 1.3958 1.6300 -2.4961
H 0.8680 2.4289 0.1474
C 0.3413 0.4230 0.1318
C -0.9150 -1.4134 0.3548
H 2.2504 -0.0181 -0.9462
H -2.0230 1.0481 -0.0836
H -1.8954 -0.2179 2.1409
H -0.4953 2.2645 1.2255
H 0.2346 0.3658 -3.0400
C 0.7858 0.4446 1.5492
H 1.6461 -0.1957 1.7896
C 0.3900 -1.6320 -0.4385
C 0.8108 0.7726 -2.2153
C -1.3890 0.1250 -0.0698
H 1.2112 -2.0412 0.1083
H 0.2755 0.4320 2.5164
H -0.7035 -2.0506 1.2520
N -1.5109 -0.2748 1.2536
H -1.6487 -1.9953 -0.2565
H 0.3612 -1.9823 -1.4559
C 0.3033 1.7144 0.7516
C 1.1866 0.1597 -1.0680
19

O -1.5414 1.3134 -0.2952
H -0.0808 -2.5556 -1.1644
O 1.9176 -0.8590 -0.0543
H 0.7583 2.8993 1.8538
H -1.8943 -2.8172 0.4055
C 0.8202 -1.0258 -0.0921
C 0.5460 1.7859 0.3351
H 0.8250 -3.1126 0.2805
H -0.0289 1.3299 2.1722
H 0.1538 2.1623 -2.2385
O 0.9202 2.2834 -1.7772
C 0.1418 -2.3481 -0.1057
H -1.2749 -0.0925 -1.8197
N 0.5162 1.9651 1.6530
O 1.3388 2.2833 -0.5781
C -0.1068 0.6304 -0.0678
C -0.9698 0.3876 -0.9391
C -1.0257 -2.3020 0.7201
H -1.0155 -1.9280 1.7119
21

H -0.7114 2.3231 0.1368
H -2.0430 -0.8534 0.3117
C 1.0731 -0.2553 0.8605
C 0.7138 0.3996 -1.4084
H 0.3021 1.3723 -1.6868
C -1.1289 1.3417 0.3805
C 1.0928 -1.4928 -0.0448
H 0.2484 -1.4576 2.4866
C 0.0876 -0.3771 -0.2831
H -2.8312 1.7449 -0.8284
H 1.8027 0.4667 -1.1526
C 1.1477 -1.1410 2.0017
H 1.4992 0.7432 0.9813
C -2.0159 1.0044 -0.8481
H -1.0449 1.3629 1.4755
H 1.7776 -1.6720 -0.8607
H 0.5056 -0.2353 -2.2880
H 2.1171 -1.2949 2.4037
C -1.3508 -0.0681 0.0103
H -2.0590 0.6057 -1.8824
H 0.8173 -2.5170 0.2348
16

H -0.7079 -2.6128 -0.1261
H 1.7977 1.1936 -1.6149
H 1.5252 -0.7141 -0.1944
C -0.4195 0.0461 -1.1029
C 0.2980 0.8036 -0.5384
H -1.1868 0.1445 -1.7815
C 1.1841 2.8904 -1.1523
N -0.7351 -0.8164 0.9610
H -1.8324 -1.3458 2.5970
C -1.4899 -0.5416 1.9576
C 0.4712 -0.6936 -0.1929
H -1.8921 0.4407 2.0726
H 0.4956 -2.3015 1.1220
N 1.0251 1.6384 -1.1727
N -0.1334 -1.9599 0.3683
O 1.6002 3.8283 -1.2024
16

C 1.1936 1.7333 0.9018
N -0.6366 -0.1693 -1.8200
C -0.8262 0.8064 0.3702
H 0.0574 -1.5644 0.5203
H 1.4717 -0.7156 -0.0207
N -1.9151 1.2657 0.7443
H -2.7031 1.1926 0.1877
H 0.7045 -1.8419 -2.4915
C 0.4484 0.5880 1.2652
H 1.2902 -1.3179 1.6520
C 0.8058 -0.8520 0.8007
O -1.3048 -1.4675 -2.0256
N 1.8181 2.6532 0.4421
C -0.0795 -1.2768 -2.1302
H 0.3721 0.6209 2.3552
C -0.6963 0.3454 -0.7514
17

H 2.2252 0.2740 1.0212
C 0.7308 -1.7791 0.3630
H 0.0096 2.1653 -0.1225
H 0.2080 -2.6080 0.8534
H -2.6181 1.6952 -0.2411
O -2.3044 0.4959 1.3095
O -1.9110 -0.2085 -0.8953
N -0.2031 0.4508 1.0557
H 0.7954 -2.0950 -0.6817
H 2.3759 -0.7356 -0.3023
C -2.0421 0.8243 0.1177
O 0.6812 -0.8337 1.4252
O 0.7514 1.0606 -1.6083
C -0.7545 0.0459 -0.2230
C 1.7296 -0.5819 0.5526
H 0.1644 0.6944 -2.2724
C 0.1615 1.1353 -0.3515
19

C -1.8303 0.3219 0.5200
O 0.6235 0.3060 -2.1471
O -0.7316 0.0709 -1.5829
H 2.7471 -0.5987 -1.2804
H 2.8188 -2.1098 -0.4373
C 0.3281 -0.3439 -1.0661
H -2.8415 0.1704 0.3692
H 0.4760 0.4354 -3.0473
C 2.1760 -1.4738 -0.9991
H -2.3311 1.0741 2.6420
C -0.8680 1.4251 0.6349
H 1.2163 -1.0544 0.9137
H -1.4755 2.2464 0.8699
H 0.0750 1.7502 0.3051
C -0.8323 0.0631 1.1607
C 1.1619 -0.9693 -0.1243
O -1.8959 1.4794 3.2245
H -0.5848 -0.6979 1.8169
H 1.7682 -2.0951 -1.7722
14

H -0.4722 2.2207 1.5825
N -0.9758 0.1130 -1.9758
H -1.8204 -0.4130 -1.8546
H 0.5170 1.2005 -1.1822
C 1.0876 -0.8471 0.8725
H -0.0971 -1.7240 -0.6584
C 0.6131 -0.8884 -0.5989
C -0.1606 0.3500 -1.0434
C -0.5559 1.2994 0.9507
H 1.5177 -1.0165 -1.1949
C 0.0539 0.0627 1.3796
H -0.3346 -0.2397 2.3583
O -1.5031 1.2570 0.1022
O 2.1305 -1.3746 1.2623
15

O -1.3282 -0.7358 0.9138
H -1.8833 -0.4358 1.7970
O -1.7419 -0.2954 -2.1310
C 0.3301 0.2474 -0.9938
O 1.1258 -1.4398 0.3418
H -0.3544 -0.7629 2.8767
C -0.5424 -0.2312 -2.1071
N 1.2969 0.8931 -0.2680
H 0.6634 -0.9432 1.2479
H 0.4777 2.4817 -0.9828
H -0.3524 0.7200 2.0687
N 1.2395 -0.5272 -0.6433
O 0.3044 -0.5455 -2.9240
C -0.4877 -0.3521 1.8697
O 1.2524 1.9268 -1.0654
18

H 1.0708 2.7691 -0.1427
C -0.4043 -0.5266 1.7946
C 0.3384 0.4038 -0.2595
C -1.1377 -0.1614 -0.4612
H -2.5934 1.0743 -1.5830
C 0.8816 1.7294 -0.0692
C 0.8558 -0.9314 -0.0296
C -0.6093 0.3133 -1.5973
H 2.5249 0.7156 -0.2700
N -1.8225 0.8745 -1.0216
N 1.7420 0.8810 0.2812
C -0.1512 -1.5528 0.8210
H -1.3695 -0.1425 1.9530
H 0.1116 -2.5056 1.2367
O -1.2938 -1.5707 -0.0569
H -0.2078 0.3408 -2.5667
H 0.4029 -0.3216 2.4388
H 1.6614 -1.3893 -0.4678
15

H 0.2255 -1.7584 -1.1950
C 1.1807 -0.5285 0.2312
O 1.0952 0.6247 -0.6400
C 0.2534 -0.6969 -0.9273
N 1.0223 0.3080 -1.9453
H -0.7870 1.7679 3.8051
C -1.0075 0.1758 -0.9957
H -1.9835 -0.3107 -1.0532
H -0.8017 -0.3787 -3.0517
H -1.1628 1.1636 -0.5822
N 1.5346 -1.1764 1.1731
H 2.2689 -1.4860 1.7636
N -0.7197 1.2926 2.4756
N -0.3410 0.2037 -2.3520
N -0.7774 0.7993 3.2939
17

N 0.6578 -0.8042 -0.0994
H 2.3461 -1.4313 -0.9935
H 1.5714 2.9058 0.9061
C 1.3210 -1.1948 -1.1236
N -1.2329 0.1457 -0.6892
N -1.7437 -0.8026 -1.2826
O 1.2857 3.5139 0.3639
H 0.5663 -1.4659 1.8372
H -0.2597 2.2442 1.8214
C -0.5289 0.8268 0.0832
H -1.6278 -1.7633 -1.4709
N 0.6640 0.3302 0.7561
C -0.1109 1.5282 1.0599
H 0.8187 -1.4611 -2.0295
H -1.0586 -1.2529 1.2702
H -2.6338 -0.3202 -1.5037
C -0.0350 -0.9987 1.0944
14

O 1.9823 -0.2250 1.3188
O -0.8261 -1.6394 -0.3947
H 2.1434 1.4349 -1.2051
H -1.9256 -0.6106 1.4188
C 0.5293 -0.3396 1.2378
H -1.6808 1.3521 -0.1968
C -0.9871 -0.2523 1.0519
C 1.2986 0.2274 0.2918
O -0.1872 -0.4197 2.2743
C 1.2424 0.9388 -0.8496
C -0.4368 -0.6371 -1.1276
N -0.0469 0.8064 -1.4371
H -0.1403 -1.1640 -2.0614
C -0.9654 0.5279 -0.3211
16

C 1.4981 -1.4672 2.2625
C 1.2251 -0.7001 1.2681
H -2.1417 2.0530 -0.1985
C -1.1244 -0.0197 -1.3227
H 1.7237 -1.0419 -1.7874
H -2.1866 0.0343 -1.5337
H -0.8717 -1.0667 -1.3529
C -0.9233 0.6898 0.0199
O 1.0336 1.6418 1.1543
H 1.6171 -2.0180 3.1233
C 0.5185 0.6740 0.6731
O -1.1341 2.0653 -0.1844
C 1.2348 -0.4210 0.0724
H -1.4859 0.2117 0.8314
H -0.5008 0.4589 -2.0806
O 1.5175 -1.0941 -0.9448
25

H 1.2201 0.2235 -2.6299
C 0.1726 0.2010 -2.2940
H -2.1408 0.1833 1.1915
H -1.0078 2.3453 -0.0798
H 2.8270 -1.5636 0.6433
C 0.4351 0.8690 0.1210
C -0.4015 1.9133 0.7087
C -1.5437 -1.6597 1.0673
H 1.4571 2.6367 1.3581
H 1.8606 0.4028 1.5926
H -0.4727 -1.8673 1.0111
O 0.5550 2.8153 1.1952
H -0.4569 -0.3346 -1.5658
C 1.3133 -0.0857 0.7966
H -3.1194 -1.8915 -0.4448
H -1.0026 1.7294 1.5850
C 2.1481 -0.9867 0.0283
H -0.3515 1.1382 -2.5836
H 2.5667 -0.6507 -0.9145
H -0.0725 -0.5059 -3.1433
O -2.2775 -1.6675 -0.1322
O 0.9754 1.0289 -1.0266
O -1.6999 -0.4500 1.7570
H -1.8334 -2.4999 1.6946
O 0.8494 -1.3236 0.0643
14

H -2.3479 -0.4234 -2.5688
H 2.2331 -1.9608 1.2943
O -2.3202 -0.3666 -1.6344
N -0.7140 0.6351 0.0258
C -1.1539 0.1071 -1.1237
H -0.6895 1.6135 -2.4077
O -1.0222 -1.0324 -1.1687
N 1.2342 -0.6266 1.8537
O -0.5061 0.7442 1.0353
H 3.3649 -1.0609 2.2350
H -1.1467 2.3421 -0.8968
C 2.3330 -1.1157 1.9214
H 1.5958 -0.3092 2.7952
C -0.8605 1.4536 -1.3605
17

C -0.6461 -0.0040 0.4458
H -0.5742 -0.4026 -2.0640
O -1.6972 0.5068 0.2934
C 0.1775 -1.1448 -1.7789
O -0.9065 -1.3547 0.8402
H -0.3209 1.3574 2.3561
O 0.6703 0.5943 0.4370
H 0.0782 -2.8535 -0.4284
H -0.1437 2.8214 0.4951
H 1.3721 2.3808 -0.2249
C -0.4002 -1.8696 -0.5346
H 1.1192 -0.6438 -1.5506
O -1.6833 -1.9190 -0.1802
H 0.3440 -1.8153 -2.6231
C 0.6027 2.0344 0.4529
H 1.4505 1.0930 2.3211
C 0.5575 1.2193 1.7433
16

C 0.8782 -0.0069 1.4298
H 2.2933 0.4424 -0.1072
H -1.9365 0.9219 1.0123
H -1.1226 -1.7929 -1.7147
C -1.1948 -0.9379 -1.0647
H 0.1268 0.5130 -1.9949
C 0.2020 1.1146 0.6349
O 1.1725 -1.0012 -0.9940
H -1.2696 -1.3066 -0.0561
H 1.4332 0.4057 2.2535
C 1.2420 0.1736 -0.0762
N -1.0045 0.9583 1.1090
H -2.1047 -0.4025 -1.3427
H 0.5286 2.1275 0.4346
C 0.1338 -0.1780 -1.1694
H 0.6225 -1.0310 1.6458
20

C -1.4406 0.7370 0.4359
H 0.6837 -2.2690 -1.4133
C 1.8907 -0.4623 -1.7239
H 0.4498 -0.2980 -3.3954
O 1.9507 0.7864 2.0291
H -3.4183 0.9548 0.4105
H 1.2156 0.7841 0.9587
C 0.6749 -1.2162 -1.2081
N -1.3413 0.9290 1.5013
C -0.2542 -0.1795 -0.5974
H 1.2842 -1.4673 0.8021
H -0.4978 0.5427 -1.3478
H -0.4124 -1.6203 0.7787
C 0.6959 0.7181 1.9801
N -0.4769 0.4863 2.4239
O 3.0342 -0.2519 -1.6456
H -2.7621 2.2372 1.3873
C 0.3963 -1.1282 0.2740
C -2.5811 1.3331 0.9041
C 0.9089 -0.6162 -2.5541
20

O 1.3098 -0.7296 0.2723
C -0.2675 1.5354 1.1596
C 1.0327 -0.2218 -1.7284
H 0.4566 2.0382 0.5532
H 0.2069 1.4706 2.1323
C -1.6440 -0.5036 1.6870
C 1.0119 -1.5869 -0.8636
O 1.9615 0.8304 -1.3708
H 0.7262 -0.3564 -2.7609
O -1.6979 1.1459 -1.5617
H -1.1929 2.0954 1.2529
C -1.0513 0.5233 -0.7793
H 0.2006 -2.3397 -0.7584
H -0.8048 -1.1814 1.4283
H 2.7433 0.4077 -1.7466
H -1.7416 -0.2884 2.7447
C 0.2196 -0.1465 -0.4853
H 1.8955 -2.1521 -1.2033
C -0.7169 0.1869 0.6816
H -2.6476 -0.7275 1.3466
20

N -1.0818 1.4319 0.3670
C 0.9494 0.4547 1.6607
H -0.7264 2.0874 1.0351
H 0.5271 -2.5831 -0.6159
H 0.5746 0.9953 2.4804
C 0.6244 -1.5423 -0.9814
H -2.0771 -1.5904 0.9045
H 2.0943 1.0651 -0.3390
H -2.1235 -0.6299 -1.7440
N -2.6101 -0.6518 -0.8501
C -0.5852 0.7297 -0.8019
H 0.5252 -1.4264 -2.0854
H 1.6334 -1.1892 -0.7873
C -0.4050 -0.7133 -0.3179
C -1.7885 -1.0569 0.0049
H -0.3665 1.0755 -1.8004
C 1.4523 1.2557 0.4929
H 1.6600 2.1631 1.0131
C 0.1493 0.4890 0.4285
H 1.5741 -0.3641 1.9362
19

H -3.1186 -0.3181 0.0160
O -0.0834 2.5489 0.3457
C -1.1800 -0.1363 -1.2196
H -2.2074 1.7149 1.1765
H -1.3049 0.3663 2.0054
H -1.3680 0.8237 -1.6785
O 0.7806 0.6221 0.2484
C 1.0292 -0.5356 -0.5303
H 0.6422 -1.4665 -0.0851
C 3.1050 -1.1587 1.7524
O 0.6066 -0.4274 -2.9791
C -1.5599 0.8357 1.0463
H -1.5758 -1.0519 -1.6428
H 4.0130 -1.1264 2.1361
C 0.3027 -0.3681 -1.8392
H 2.0867 -0.5582 -0.6772
C -2.0931 0.0111 -0.0321
O 2.1805 -1.1573 1.4423
C -0.2554 1.3820 0.5147
17

H -0.6185 0.2538 -1.9089
C -0.3506 2.0110 0.7376
C 0.2118 0.8136 0.5211
C -0.4307 -1.1854 -0.4465
C 0.2500 -0.2680 -1.5263
H 0.0977 0.3214 2.5584
H 0.1833 2.9205 0.4882
O -0.0464 -1.1851 0.9852
H 1.2814 0.7216 0.3413
O 1.7632 -1.9709 -0.5459
H -1.5105 -1.1660 -0.5217
C 0.7531 -1.6305 -1.2350
H -1.4737 -0.0025 1.8807
H 1.0042 0.3453 -2.0297
H -1.3036 2.2140 1.2308
C -0.4078 0.0399 1.6332
H 0.5971 -2.2328 -2.1625
17

C -0.1025 0.6843 -0.8419
O 0.3095 2.5454 2.6954
C 0.0036 1.8290 1.8470
H -0.4689 -0.2996 -2.7593
C 0.2911 -0.6988 -0.5328
C 1.3154 -1.2358 -2.2976
O -1.3104 -1.0766 2.7579
C -1.2581 -0.8350 1.6018
H 0.9881 -0.6731 1.4949
O -0.9867 1.9367 1.0664
O 1.3070 -1.6851 -1.0625
C -0.2857 0.8738 0.6543
H 1.8385 -1.3431 -3.2233
C 0.0744 -0.4947 0.9405
H -2.0513 -0.8411 0.8367
H 0.1381 1.6543 -1.2391
C 0.1979 -0.3405 -1.9384
21

C -1.7735 -0.3763 -2.1012
C 0.3588 0.7888 0.8122
C 2.2180 -1.4577 0.2438
H 1.3881 0.7770 1.1517
C -0.2092 1.9631 0.8788
H -0.8106 -0.6297 -2.5499
H -2.5152 1.0719 -0.8640
H -1.7485 0.0900 1.5000
C -0.7638 -0.2285 1.1186
N -0.5331 1.5994 -0.4262
H 1.5073 -1.6600 1.0720
C -1.5737 0.5042 -0.9512
H 2.8061 -2.3128 -0.1703
H -2.7208 -0.5554 -2.6019
H 2.4720 -0.4581 -0.1969
H -0.3287 2.6931 1.6484
H 3.0601 -1.2624 1.0346
H 1.3457 -1.5943 -0.5094
H -0.7236 2.5479 -0.7456
N -0.9748 -0.5450 -0.2387
H -0.4806 -0.9551 1.8954
13

H -2.1383 -0.6467 0.2757
H 1.4546 0.8742 -1.6376
C 0.4565 1.3323 -1.5842
H -0.1383 0.9098 -2.4140
C 0.6134 -0.9802 2.0331
C -0.1806 0.1384 0.2602
C -1.1362 -0.8715 -0.1330
N -0.2458 1.1878 -0.3992
N 0.6026 0.1427 1.3153
H 0.5697 2.4308 -1.6799
O -1.0113 -1.7383 -0.9447
O -0.4165 -1.5053 2.3784
H 1.5702 -1.2740 2.5299
14

N -0.0135 1.3576 -2.0061
H -1.0405 -1.0344 0.1703
O 0.3721 -1.9622 1.3100
H 0.2752 1.4313 -2.9238
C -0.3196 0.8437 -0.7764
O -1.8347 2.1318 0.3476
H 1.2005 -0.4257 -1.7136
C -0.3546 -0.7044 0.9006
H 1.5973 -0.0055 1.1901
C -1.1453 1.3583 0.0815
C 0.4883 0.2713 -1.5306
H -0.6992 -0.2409 1.7956
O 1.0416 -0.6901 0.8043
N 0.4324 -2.3307 2.3504
23

H -1.5747 1.3082 0.9779
C -0.9859 0.7069 -1.8928
H 2.8736 -0.8915 -1.8898
H 0.7105 -0.9176 3.0482
H -1.5932 -1.8207 0.3672
C -0.6545 -0.0998 -0.6387
C 1.8185 0.6304 -2.6355
C -1.0947 0.7386 1.7515
H 0.8245 -2.2139 1.9539
N -0.8475 -1.2091 0.0856
H 0.6082 1.5001 0.2560
H -1.8195 0.3436 2.4450
H -0.4241 1.3929 2.3087
H -1.9968 1.0799 -1.9883
C 0.1652 -1.4109 2.2625
H -0.8736 -0.0081 -2.7062
H -0.3481 1.5776 -2.0414
C 2.1726 -0.1336 -1.6649
C -0.2362 -0.3780 1.1723
O 1.7438 -0.0236 -0.3815
C 0.5088 0.4404 0.0652
H -0.7235 -1.8721 2.6696
O 1.7464 1.2603 -3.5247
17

C 1.9594 -0.2173 0.0520
H 2.8923 -0.7404 0.0721
H 1.2477 1.0807 -1.8160
O -2.6758 0.6776 0.3069
H -2.9045 0.5858 -0.5754
H 0.3105 1.4734 0.6771
C -0.3066 -0.5493 -0.3450
C 1.7714 0.9519 -0.8906
N -1.5499 -1.4076 0.0735
C 0.6749 0.6013 0.1517
H -1.3409 -2.3463 -0.0060
N -1.4949 -0.2784 0.3036
H 2.6120 1.6014 -0.7904
H -0.0596 -0.8623 -1.3255
H 0.7514 -0.7769 1.9803
H -2.6947 0.8209 1.2180
C 0.8073 -0.6144 0.9138
16

N -0.7842 0.9839 1.1263
C -0.7627 -0.3040 0.9581
N 1.2987 -1.9597 0.4968
H -0.8135 -1.1277 1.6011
H 1.1585 -2.1754 1.4570
O -0.5088 1.4814 -1.6131
N -1.2369 0.4935 -0.9800
H -2.7493 0.5812 0.5578
O 0.7495 1.3290 -1.9428
H 1.1326 1.3369 0.9446
N -1.8418 0.5190 0.2564
C -0.0009 0.2013 -1.6591
H 2.2949 -0.4280 -0.0612
C 0.5515 0.4427 0.7689
C 1.3614 -0.7095 0.3534
H 0.1512 -0.6646 -2.2642
16

O -0.4775 -1.3611 -1.2875
H -0.9363 -1.7871 1.2511
H 1.5896 -0.2160 -1.4218
H -2.2585 -0.8042 0.7198
N 2.0652 0.3426 0.5712
H 3.1241 -1.7142 -0.3513
C 2.8361 -0.8056 0.1760
H -2.6158 2.3291 -1.4531
H 3.7101 -0.5496 0.7786
O -0.8634 0.2797 1.3632
C -0.1369 -0.8676 -0.3278
C -2.2230 2.0561 -0.1641
C 1.5418 -0.3250 -0.3356
C -1.1562 -0.8007 0.8043
H -2.3472 2.5137 0.7543
O -1.8521 1.7097 -1.0773
11

C -1.0483 -1.2035 0.6327
N 1.7705 2.4977 -1.3614
H 0.2494 2.0097 -0.1733
N -0.8337 -0.2883 -0.0929
O -2.0769 -0.8194 -0.0713
N 1.8290 1.4051 -1.5121
C 1.2345 1.6425 -0.3207
O -0.6093 -2.5817 0.1639
N -1.4995 -2.9142 0.4363
H -1.0346 -1.1003 1.6937
O 2.0188 1.3523 0.6051
17

H -1.4636 -1.7204 -2.0189
H 1.2025 -1.5622 -2.0372
H -1.5546 3.1670 1.0529
O 1.5166 -0.9075 0.7408
H 1.5083 1.9460 1.5607
N 1.8273 0.4908 0.4091
N 0.8858 1.2947 1.1394
O -0.9354 -2.9365 -0.4787
C 0.5107 -1.3067 -1.2573
O -2.8391 2.0444 0.1116
C -1.7112 2.1990 0.5630
C -0.4088 1.4596 0.7413
C -0.6912 -1.9363 -1.3048
O -1.2211 0.8139 0.3697
C 1.1027 -0.4415 -0.2899
H -0.5555 -3.0912 0.3663
H 2.8265 0.4868 0.3321
21

H 0.5178 1.2724 1.7030
H 1.5220 -1.1591 0.1668
C 1.2336 0.6361 1.1888
H -0.4885 -0.2857 2.7478
H 1.7927 1.3638 0.6321
H -0.5781 -1.7409 1.6685
C 0.6980 -0.4514 0.0444
H -1.1403 -1.6626 -0.7797
C -0.6695 -0.6902 -0.6758
H -2.5521 0.9005 -1.8695
H 1.1082 1.6089 -1.2286
C 0.5992 -0.4853 -1.4755
C -0.0011 -1.0300 2.1833
H -1.5742 1.3174 -0.5230
H -0.1892 1.2171 -2.4885
H 0.9006 -1.3962 2.5885
C -1.9206 0.4379 -1.0465
H 1.9208 0.2027 1.8906
H 1.3526 -0.8772 -2.1639
O -2.9844 -0.1212 -0.8624
C 0.4525 0.9432 -1.7003
19

O 1.6186 -0.4784 0.8251
C -1.2831 1.6103 1.3329
H -0.8715 1.9354 2.2750
H -1.1871 -0.5417 1.4727
H -1.0633 1.7277 -1.5317
C 0.2988 -3.2089 0.3317
H -2.2293 1.9800 0.9989
H 0.1726 2.9151 -0.3419
H -0.1795 -0.4060 -2.1845
H 2.2587 -1.2025 0.5994
C -0.1594 1.9862 -0.8991
H 1.2036 -1.4585 -1.8380
O -0.5816 -3.7963 0.2098
H 0.6577 1.7569 -1.5967
C 0.5442 -0.5264 -0.0292
C -0.6310 0.1655 0.9172
H 1.3121 -2.9507 0.5152
C -0.3509 1.2811 0.3314
C 0.4704 -0.7885 -1.3883
17

C 0.0742 0.1434 0.1103
O 1.3961 -0.3316 -0.0532
H -0.5593 1.3528 -1.5879
O -0.9156 -1.9168 -0.4814
C -0.5227 0.4426 1.3790
H -2.2143 -0.3500 -0.7530
C -0.1895 0.3369 -1.3933
H 0.4865 0.1160 -2.2281
H -1.3028 -0.2020 1.7440
C 1.9077 0.6746 0.8892
H 2.9774 0.9979 1.0090
H -1.5665 -1.1645 -2.1928
H -0.2730 1.2132 2.0790
H 1.5299 1.6930 0.5125
O 1.8556 -0.2008 1.8700
H -1.3883 -2.0696 0.3227
C -1.2954 -0.7351 -1.2260
17

N -1.2767 -1.5117 0.4352
C -2.1912 -0.8054 -0.0823
C 1.0244 1.1651 -0.0915
C 0.2186 -1.4569 0.8707
N 0.0662 0.2750 -0.5360
H 1.0604 0.2487 -2.9027
H -0.4526 -0.0399 -2.3572
C -0.5735 -0.3206 1.0982
H 0.9505 -1.3050 1.7085
N -3.1234 -0.2609 -0.4693
C 0.4923 0.3176 -1.9373
H 1.9401 0.7820 0.3780
H 0.6922 2.1417 0.2719
H -0.4677 1.1673 2.8807
C -0.3999 0.4757 2.0684
O 1.3947 1.2765 -1.4910
H 0.6457 -2.1492 0.1557
20

C 0.9747 -0.5906 -2.2629
O -0.4931 2.7510 2.8348
H 2.0483 -0.1043 -0.3747
H 0.5085 1.9701 -0.2253
C 0.0067 -1.1036 -0.7744
C 0.1240 0.0283 1.2226
H -1.8010 -1.7705 1.5750
H 0.8300 -0.6068 -3.3541
H 1.5440 -1.5153 -2.2938
C -0.2519 -1.2946 0.6834
H -1.8101 0.2999 0.0523
C 1.0608 -0.1431 -0.7841
H 0.6597 0.4546 -2.4409
C 0.2726 0.9665 0.0298
N -1.0231 -2.1827 1.0721
C -1.0758 0.7635 0.6537
H -0.6891 -1.6829 -1.3291
H -0.0442 2.1205 2.4758
H 0.7295 0.0844 2.1019
H -1.5704 1.5556 1.1379
16

C 0.4578 0.1192 -0.3615
H 0.0375 3.0689 1.8007
C -0.3664 2.3420 1.1318
H -1.7067 0.3669 1.5385
H 1.0400 0.1221 -1.2263
H 0.8579 -2.7397 -3.2050
C 0.2787 -2.0543 -2.6571
C 0.0606 1.2192 0.4300
H -0.1936 -1.2413 -3.1336
O -0.2909 -0.6802 1.6622
N -1.3028 -0.0405 2.3528
N 0.6175 1.3212 1.5404
H 1.2055 -1.5937 0.5348
C 0.4552 -0.8436 0.5549
H -1.2245 2.8211 0.6943
H 0.0743 -2.1872 -1.6569
17

H 0.7509 0.9619 1.8951
N 0.7778 -0.1528 -2.0926
O -0.7124 -1.7669 -1.6619
H 1.3091 0.7067 1.6416
H -1.1976 2.2806 0.7425
C -0.0957 -0.6066 -1.2190
H -1.1539 -2.0878 -0.8584
H 1.7187 -0.2104 -2.3564
C -0.3393 2.1534 0.1238
O 0.0901 -1.9153 1.5859
O -1.3366 -0.1508 0.5159
H -0.6672 -2.4119 1.6542
O 0.1180 1.6029 -1.0344
C -0.4287 0.6469 -0.2781
O 0.9180 -1.4416 0.7742
H 0.2685 3.0301 0.2763
C -0.0196 -0.6385 0.2914
17

H 1.2183 1.6280 -0.8092
H 1.3328 -2.0881 -1.1335
O -0.7646 2.5973 0.7673
C 0.6214 0.8363 -0.3985
C 1.2847 -1.9910 -0.0544
H 0.9579 -0.3482 1.3150
N -1.1534 -1.1124 -0.7356
N -0.0598 -0.2739 -0.8310
H 2.2809 -2.1489 0.3200
O -1.7077 1.4126 -0.5709
H 0.6235 -2.7578 0.3526
H -2.3894 0.7981 -0.6515
H -0.7070 3.4831 0.5086
H -1.0378 -1.6917 0.0411
C -0.6870 1.3192 0.3247
H -0.7509 0.8693 1.3088
C 0.9380 -0.5317 0.2464
21

H -0.9302 -1.0115 0.8178
O 1.3899 -1.2317 0.8298
O -1.5084 1.9960 -0.1068
H -1.1686 1.7806 1.9224
N -0.5625 -1.5463 -1.2512
C 2.1824 -1.6952 -0.1249
N -3.6224 -0.3361 -0.4529
H 1.8670 -1.9053 -1.1174
H 2.2155 0.5910 0.9156
H 0.3020 0.4506 -0.9925
C -2.5678 -0.4525 -0.3463
C 2.3564 -0.2788 0.3017
N -0.1798 -0.3808 -1.0691
H -2.0820 1.8116 -0.7887
H 2.9921 -2.3601 0.0916
H -0.8947 -2.4356 -1.4607
C -1.2075 -0.8066 -0.1861
H 0.1908 2.1434 0.9580
H -1.2008 3.3548 1.2173
C -0.8663 2.3407 1.0315
H 3.2947 -0.0282 -0.1891
16

C -0.3941 -0.4562 0.4124
O 2.6910 -1.6729 -0.9502
C -0.4062 0.2837 1.8014
H 0.4411 0.6308 2.3875
C 0.7877 -0.1416 -1.7878
C 1.8726 -0.8119 -1.0275
O 1.3689 1.2137 0.1410
C -1.0756 0.8716 0.6111
H 0.4142 0.8294 -2.1513
H -1.5272 1.8469 0.6788
N -1.6785 -0.0642 -0.3382
H 0.6332 -0.8063 -2.6401
C 0.9446 0.1296 -0.3266
H -0.3524 -1.5401 0.5509
H -1.1742 -0.1127 2.4786
H -2.5450 -0.2001 0.1602
17

H -0.4278 1.1825 2.1529
H -1.6928 -3.1636 -0.7722
H -0.5677 -1.8960 1.0557
H 3.2985 2.2510 1.9807
C -1.4508 -2.1191 -0.8356
C 2.4963 1.7019 1.6942
C -0.4907 0.1629 0.3438
C -0.7434 -1.3824 0.1269
C 1.4426 1.1657 1.4669
O 0.5834 -0.8093 -1.8839
H -1.8081 -1.5766 -1.6866
H -0.0868 2.0689 -0.5588
H 1.5357 -0.8150 -1.6574
C -0.0642 -0.3056 -0.8569
C 0.2362 0.8389 1.3838
C -0.6528 1.1842 -0.7862
H -1.6077 1.5117 -1.1673
15

C -0.6108 0.2676 1.0909
H -1.3244 -0.2856 1.5772
H -0.0349 -2.2897 2.0696
H 1.4615 -3.2217 1.6363
O -1.5948 1.0908 -2.5115
C 0.1205 1.4720 -1.0559
N 0.5008 0.9457 1.3376
H 0.2237 0.0861 -2.5910
H 0.5325 2.4244 -1.0962
H -1.8921 0.6884 -1.6734
H 1.2701 1.4991 1.2898
C -0.0857 0.7868 0.1042
C -0.4175 0.7598 -2.0740
C 0.7886 -2.4334 1.4039
O 1.0625 -1.7901 0.4924
21

H 2.0576 -1.2376 0.1899
O 0.6431 0.2553 0.7350
C -1.0063 -1.6169 1.0176
N 2.0485 0.6195 -2.4479
C 1.1735 -0.7664 -0.1848
C 1.9858 0.9019 -1.2016
C -1.8078 1.4483 0.2590
H 2.6706 1.2247 -0.4999
C 0.8870 1.4228 -1.7719
H -1.5161 2.3832 0.2938
H 0.9180 -1.1089 -1.1764
H -2.1818 0.5866 0.1338
H 0.8273 2.4970 -1.7529
C -0.0094 -0.8455 0.5445
H -0.1062 1.0192 -1.7746
H -2.6088 -0.9378 2.1889
H -1.0062 -0.2903 2.6746
H 1.4722 0.0707 -3.0562
H -1.4158 -2.4890 0.5332
H -1.4855 -1.9733 3.0131
C -1.5396 -1.1636 2.2828
16

O -1.8235 -0.3980 1.2992
H -2.5714 0.1326 1.5411
O -0.3257 -0.1076 -1.1975
H -0.0614 2.5322 1.0253
H 2.5541 -0.2484 -1.3295
O 0.4763 0.6579 0.7235
C 0.8005 -0.1016 -0.5169
O 1.2582 -1.2587 0.0901
H -1.3302 1.9719 -0.0778
H 0.7911 0.5059 -2.5668
H -0.6005 -2.5871 0.9560
C -0.5055 1.6637 0.5654
N 2.1354 -0.8758 -0.6747
N 0.4272 0.8476 -1.6999
N -0.7921 0.3739 1.1129
H -0.4324 -3.1087 0.7497
15

N -0.8043 0.2856 -1.6727
H 1.2685 -1.1836 -1.0601
H 2.0996 0.7040 -0.8617
H 0.9154 0.9108 1.2081
H -1.1763 0.8614 2.3396
O -0.0822 -0.9671 1.2069
C 1.4778 -0.1076 -1.3119
C 0.1913 0.2136 -0.6636
H -0.9796 -0.6561 -2.0450
C -1.0278 -0.1743 1.9791
H -2.0177 -0.5359 1.5950
H -0.9415 -0.7539 2.9241
C 0.1510 0.2380 0.8150
O -1.0232 1.3657 -2.1375
H 1.9492 -0.2006 -2.3154
21

H -3.9907 -0.5576 -0.1887
C 1.6450 -0.6894 0.6395
C 0.1433 1.2098 0.7300
C -0.9254 -0.6145 0.7641
H 1.3127 -0.9157 1.6248
H -0.9730 -1.8236 2.7228
H 2.6837 -0.4390 0.7784
H -0.0288 1.2144 1.7680
C 1.8615 1.4730 -1.0333
H 2.4028 1.0117 -1.8546
C -2.0502 -0.8657 0.6698
H 2.6235 1.9220 -0.4219
H 1.4596 -1.5604 0.0095
H -2.5544 -0.8803 -1.3068
C -0.6204 0.3513 -1.7114
C -1.1684 -1.3198 1.8200
C 1.1023 0.5315 -0.0828
C -2.9816 -0.7428 -0.3590
C -0.3618 0.3301 -0.3079
H 1.1541 2.1549 -1.4549
O -0.7338 0.2098 -2.8058
23

H 1.1636 2.8582 0.3598
H -1.1142 1.9697 1.8846
H -0.6833 2.5536 -1.2294
H 0.4067 1.3504 2.1908
C -0.5440 -0.4416 -0.8811
H 0.4467 -3.0646 0.0778
O 1.8712 -1.6088 -0.2994
C 0.7915 -2.0873 0.4363
C -0.3168 1.4221 1.3436
H 1.4664 1.2549 -0.0405
H 0.7310 -0.3449 -2.7076
H 1.0945 -2.0331 1.4873
H -0.1289 -1.8908 -2.2384
H 2.7443 -1.5965 -0.6058
H -1.6962 2.4302 0.0635
C 0.6510 1.9041 0.2445
H -1.4394 0.1408 -0.9586
H -1.9680 -1.7973 0.1373
O -1.4644 -1.6864 1.0264
C -0.6869 2.1582 -0.1960
C 0.1352 -0.8796 -1.9842
H -1.0144 0.5869 1.5368
C -0.4458 -1.1979 0.3524
20

H 2.1393 0.1212 -1.5951
H -2.6049 -0.2032 -0.2191
O -1.3435 -1.1661 -2.3039
H 3.1244 -0.9877 -0.6121
H 0.0488 0.5973 2.2313
H -2.6037 1.4027 0.3629
N 1.8509 -0.0273 1.1414
H 0.5524 1.8946 0.9650
H 1.7605 -1.6397 -1.5984
H -1.7896 1.2490 -1.1282
C -1.9952 0.6997 -0.1933
C 2.1077 -0.8013 -0.9855
C -0.7001 0.3252 0.3280
C -0.2132 1.2005 1.3577
H 2.2352 -0.6242 1.8146
C 1.1983 -0.6616 0.1417
H -0.9405 1.8531 1.8170
H -1.9774 -0.6594 -2.0791
H -0.7085 -1.5809 0.5743
N -0.1409 -0.9917 -0.0190
17

H -1.7416 -1.6472 -0.8927
H -1.1986 2.5805 -0.4841
O -0.4274 2.1985 0.0486
H 2.0170 -0.0262 0.9964
O 1.3252 -0.1755 -1.5348
C -0.0732 0.9027 0.1958
H -1.5702 -2.0041 1.3732
C 1.1326 0.4237 0.7181
H -0.0967 -2.3577 -0.9771
C -0.6515 -1.5284 1.0748
C 0.9919 1.8769 0.4106
C 0.1789 0.2694 -1.1881
H -0.4633 0.6493 -1.9616
H 1.7085 2.5886 0.6244
H 0.0065 -1.5915 1.9352
C -0.7678 -1.7053 -0.4568
C -0.3702 -0.4539 0.1180
21

O 1.5520 -1.7417 -1.3897
H 0.0719 1.5021 -1.7484
C -1.0975 0.8095 1.1872
C -0.2660 -1.6064 -0.2581
H 0.3874 -1.2807 1.8493
H 1.3144 0.6520 -0.8578
C -0.6994 -0.4251 -1.1869
H -1.2812 2.7596 0.3941
H -0.6708 -0.8647 -2.1611
C 0.2987 0.6422 -1.1744
H -0.5311 -2.5927 -0.5814
H -1.5929 2.6002 2.2086
C -0.0542 1.3799 1.4214
H -1.7160 -0.1117 -1.0574
H -1.8940 0.1691 1.1979
C -1.2135 2.2183 1.3086
H 2.4187 -1.4880 0.4528
C 1.4805 -1.4344 -0.0790
H 0.9420 1.4778 1.6895
H 2.1103 -1.3320 -2.0227
C 0.4407 -1.3332 0.8076
17

C -0.6044 -0.7951 -0.7597
C -1.6829 0.6153 -2.6520
C 1.0952 0.4003 0.8677
H -2.2584 0.8571 -3.4326
N -0.0514 1.0887 1.2515
C -0.4633 -1.4996 0.6835
H -0.0217 2.0694 1.0933
H 2.1282 0.8949 -1.1446
H -0.3163 -2.5441 0.5017
N -0.4782 -1.1746 1.9314
H 0.4778 0.2231 3.1739
C -1.0166 0.2363 -1.6716
H -0.5717 -1.6429 -1.4263
C 0.2660 0.0101 2.1346
H 2.0788 0.3117 1.2739
C 1.2572 0.5775 -0.6301
N 0.1616 0.3720 -1.1946
21

H -1.6522 -1.3420 3.0616
H 0.3945 1.8296 -2.4206
C 0.2067 0.8255 -2.0616
C -0.6571 1.0703 -0.0924
H 0.4178 -1.7967 -1.1072
C -1.0298 0.4826 -1.3727
C -0.8225 -0.6446 2.8462
H 0.0094 -0.3342 -3.4201
H -2.0039 0.0521 -1.5213
H 0.0824 -2.0990 1.5190
H -0.8824 2.0359 0.3294
O 1.7799 1.3688 -0.2006
H 1.4078 2.2502 -0.0317
C -0.0669 -0.3317 0.3803
C 0.7317 0.5787 -0.5525
H 1.9335 -1.3190 -0.2304
H -0.1459 -0.7224 3.6961
C -0.1407 -1.0389 1.5967
O 0.7748 -0.1587 -2.8369
C 0.8912 -1.0896 -0.4414
H -1.2281 0.3830 2.8601
27

H -1.2275 2.8512 0.0753
H 2.3142 1.2456 -0.2719
H 1.4772 3.0800 -1.1525
O 1.8455 1.1832 -2.8499
N 0.1609 -0.8409 -0.0607
O -0.0333 -1.1904 1.1438
H -0.1227 3.7766 1.0442
C 0.8272 0.0520 -0.9863
H -1.4620 -2.5456 2.2021
H 1.8165 -2.0716 -0.2191
N 0.6235 3.4150 -0.7584
C 0.9681 0.5465 -2.4449
C -0.1577 2.9827 0.2927
H 1.2111 -1.7813 -1.8545
C 1.2835 -1.3684 -0.8618
C 0.4455 1.7034 0.9323
H 1.0039 2.1326 1.7678
H -1.9101 -0.4398 1.2499
C 1.2590 1.0726 -0.1173
H -0.9835 -3.2263 0.6190
C -1.1982 -0.7768 0.4888
H -0.1631 0.9603 1.4247
H 0.2921 0.0079 -3.0916
H -2.6515 -2.6546 0.8651
H -2.0417 -4.0704 1.6395
C -1.7718 -3.0813 1.3205
H -1.8051 -0.9624 -0.3966
18

C -0.9371 -2.2637 0.0240
C -0.4211 2.4386 -0.0185
C 0.7243 -0.2788 -0.6027
H 0.7933 -2.9518 1.0336
H -0.2614 2.2810 -1.0733
C -0.6163 1.2472 0.9942
H 0.4783 2.8766 0.4248
H -1.5216 -1.5918 -0.5793
H 1.4889 0.9010 -2.0106
O 1.1291 0.0511 -1.8294
H -0.0661 1.1156 1.9378
N 1.3517 -1.2939 -0.0923
H 2.1981 -1.7581 -0.4379
C 0.3391 -2.1964 0.4081
H -1.6726 1.2518 1.2442
H -1.4486 -3.1495 0.3633
O -0.3009 0.1879 0.1943
H -1.2571 3.1333 0.0197
13

H -2.3212 1.2187 -0.0741
H 2.6468 0.4405 0.8906
N 0.5831 -2.2386 -0.1476
C 0.7887 -0.4561 0.4381
C -0.2997 -1.2745 0.1489
H 1.4000 -2.1224 -0.6805
H -0.2208 0.8467 -1.7522
H -1.2701 -1.6717 0.3479
O 1.8919 -0.0657 0.9024
N -0.3294 1.2382 -0.8620
H -1.2611 2.3714 0.5919
C -0.3125 0.2757 0.1078
C -1.2956 1.4377 0.0887
18

H 0.0970 -1.7333 -1.5521
H 3.0756 1.1337 -0.2577
H 1.4094 0.6077 2.3533
C -1.3960 -1.3189 0.0027
H 0.9113 2.2900 2.0589
C -0.0387 0.7757 0.2754
O -1.7636 -1.5640 -2.4754
H 2.5225 1.8704 1.6416
C 1.5144 1.4648 1.6773
C 1.3059 0.8775 0.3012
H -0.8030 -1.6771 0.8405
H -2.3778 -2.2228 -2.1376
O 2.4003 0.4572 -0.4896
H -2.4598 -1.5387 0.1005
C -1.0345 -0.0134 -0.6767
H -0.7722 1.2570 0.9338
H -1.6902 0.6653 -1.2164
C -0.9007 -1.3309 -1.3796
16

N 0.6917 0.5540 0.6529
H -2.9719 -0.9423 2.4185
O 0.8328 1.1123 -1.9483
O 2.8944 0.9458 0.6645
H -1.1692 0.3417 -0.7323
N -1.4760 -1.1681 0.6436
C 2.6437 1.2164 -0.5426
H -0.3774 -1.2975 -1.0527
C -2.7020 -1.2365 1.3599
H 3.2412 2.1662 -0.4055
H -2.9269 -2.3349 1.3690
H -3.4199 -0.6074 0.7780
N 0.7504 -0.2475 -0.0400
C -0.6510 -0.5392 -0.2967
N 1.7373 1.7366 -1.7211
H 2.9028 0.3004 -1.1470
18

N -1.1267 1.2456 -1.3953
H -1.5811 1.3318 1.6122
H -0.4077 -0.0097 -3.1587
O 0.6243 -1.4180 2.4785
C 1.2165 -0.6657 -0.4669
C -0.8123 0.5907 1.3343
C -0.7882 -0.6440 -0.9440
C -0.5415 0.2964 -2.1232
N 0.3057 -1.5859 -0.6480
H -2.1319 1.4088 -1.6185
O -0.2652 0.4837 2.6070
H 1.6383 1.0911 0.7514
C 0.4196 -0.3662 1.7830
H 2.0372 -0.6646 -1.1967
C -0.8945 0.5150 -0.0880
H -1.7432 -1.1811 -1.0201
H 2.4780 -0.4310 1.2631
C 1.5727 0.0029 0.8300
16

H -0.5848 -1.8114 -2.3032
O -0.8271 0.9954 0.5284
N -0.6119 2.7156 1.9890
C 0.2787 -0.2193 -1.2489
H -1.6836 -0.5441 -1.5951
C -0.8433 -1.2183 -1.4296
C 1.0459 -1.3170 1.0649
C 0.3402 0.7931 -0.1053
O -1.3740 1.9371 1.3717
H 0.8191 0.1122 -2.1308
H -1.0901 -1.9391 -0.6534
N 1.2708 -0.7512 2.0994
H 1.0206 1.6353 -0.2080
O 0.7500 -2.5356 0.9973
N 1.0981 -0.4995 -0.1305
H 0.3915 2.6469 1.7539
14

H -0.0743 2.0695 -1.8576
H -0.2107 0.6874 -3.0467
O 1.5539 -0.4480 1.9436
C 0.7556 0.3453 -1.2853
H 0.2420 -2.0016 2.1563
O -1.2216 0.0370 1.5646
C -0.1913 0.0295 -0.5329
N -0.9694 -0.8754 -0.0687
C -0.3108 1.0046 -2.0135
H 1.7503 0.2380 -1.6170
H 0.7645 -1.0176 3.6150
H -1.3614 0.9791 -1.8724
N -1.5526 0.1159 0.4783
C 0.8259 -1.1636 2.5364
20

C 0.7695 -0.3237 -0.9704
H 1.0358 1.8964 1.3451
N 0.6933 -0.8610 1.3816
C -0.4099 1.5180 -2.0954
H -0.0195 1.1712 -3.0113
C 0.4379 -2.2712 1.0565
H -1.6610 1.4447 0.4068
C 0.1513 0.0525 0.3376
H 1.2800 -2.8139 1.5085
H -1.2150 2.1987 -2.1085
C 0.7699 1.4276 0.4387
H -1.8312 0.0387 -0.5894
H -0.5300 -2.4929 1.5355
H 1.0238 2.1321 -0.4859
H -1.8057 -0.1050 1.1482
C -1.3548 0.4100 0.3244
H 0.4241 -2.7475 0.0684
C 0.3464 1.0859 -0.9709
H 0.5561 -0.7065 2.3813
O 1.3391 -1.0543 -1.7010
21

H -2.7253 1.0518 -0.0225
H 2.6648 -1.8790 0.3810
N 0.4563 0.8379 0.6809
H -1.7167 -0.1939 0.5826
H -1.4828 2.4323 -1.1456
H 1.9639 -1.4969 2.0207
C -0.1185 2.0283 0.5074
C -1.7782 0.5649 -0.2183
C -0.8895 1.5281 -1.0345
C 2.0638 -2.1197 1.1928
O 0.8250 -0.0463 -0.5851
H -0.0481 1.8131 -1.7050
H -1.0573 -0.7684 -1.6373
N 0.6640 -0.3528 0.5772
H 1.7189 -3.0996 1.1966
C 0.4228 -1.4736 -0.1608
H 0.8174 -1.9191 -1.0434
H -0.7744 2.3231 1.3153
N -1.3881 0.1970 -1.5440
H 0.6613 2.7471 0.4009
H -0.2793 -2.1744 0.2412
17

H 0.4963 -1.6564 -2.0278
C 0.1670 0.1801 -0.9618
H -1.0912 1.2960 -1.3222
C 0.5646 -0.5707 -1.9893
H -2.4752 -0.7274 0.5742
N -1.1807 0.5000 -0.6404
C 1.5994 0.2377 -0.5548
H -1.7864 0.8275 2.4941
H 1.8628 -0.5641 0.1464
H -0.0472 0.8880 2.4966
C -0.5775 -0.6833 1.5164
H 0.7215 -0.1094 -2.9657
H 0.1142 -1.3163 1.9980
C -0.9110 0.4761 1.9716
H 2.3131 0.3297 -1.3814
H 1.7474 1.1435 0.0538
C -1.5172 -0.2511 0.5922
20

C 0.7014 0.1482 -0.3084
C -0.0876 1.2843 0.0147
H -2.0991 0.0546 1.1763
H -0.2252 2.1503 -0.6383
H -1.4915 1.4674 1.4573
O -2.1044 0.7338 -0.6768
C 1.5662 1.1983 0.4381
H 1.8719 0.6048 1.3389
C -1.1364 -1.8125 0.2229
H -2.1825 -1.7201 -0.0972
O -0.5142 -2.0062 -1.0060
H 1.8471 -0.9800 -1.8423
H 2.4339 1.3308 -0.2608
C -1.4721 0.7735 0.5875
C 1.5773 -0.9481 -0.7857
H 2.3747 -1.3279 -0.1399
H 1.5496 2.1966 0.9254
H -1.1465 -2.2505 1.2189
C 0.1640 -1.2003 -0.2063
H -1.6266 0.3031 -1.4183
23

H -1.1003 -2.2702 -0.5089
H -0.3174 -1.4757 -1.8100
H -1.9735 0.4302 -1.1424
H -1.5372 1.4279 2.6619
C -0.3547 -0.4504 0.3099
H 3.1020 0.2414 -2.0333
C -0.1663 1.0360 1.0540
H -0.3716 1.0605 -1.9309
O 0.9814 -2.0571 -0.3294
H 2.2470 2.2008 -0.1324
C -0.2675 -1.6006 -0.7215
H -2.4152 1.1671 1.0964
H -1.9463 -1.2586 1.5385
C -1.1063 -0.5671 1.6120
O 2.3127 -0.2752 -1.8439
C 0.7186 0.4874 0.0481
H 1.4188 -2.5724 -0.9937
O -1.1697 0.8350 -1.4603
H -0.4581 -0.8184 2.4540
C -1.5408 0.9363 1.6956
N 1.8618 1.3259 -0.2039
C 1.6986 0.3633 -0.9297
H 0.3841 1.8340 1.5699
18

H 0.3347 3.0022 0.7868
H 0.5770 -1.8652 -1.8488
H 1.8627 2.1459 0.3569
C 0.7132 -1.5701 -0.8017
C 0.2359 0.3277 0.9605
N 0.0877 1.2123 -0.0716
H 1.2904 -0.6542 -0.9240
H -2.5380 -1.3549 0.3377
C -1.5368 -1.1685 0.0456
C -1.0668 0.2838 0.3699
H 1.3838 -2.1852 -0.1929
C 0.8457 2.3974 0.0631
H 0.9496 2.8499 -0.9139
H 0.8117 0.1015 1.8100
O -0.8781 0.6743 -0.9846
N -0.5768 -2.0315 -0.2798
H -1.8352 0.7295 1.0237
H -0.6608 -2.8951 0.2631
17

H 0.4483 1.9511 -0.3696
N -0.4075 0.5688 -2.5021
N -0.2830 1.0390 2.3678
H -1.0595 2.2494 4.0667
C -0.7151 1.6668 3.2692
H 0.2831 -2.1549 -2.4596
H 0.5464 0.2200 -2.4639
C 0.9692 -0.0045 0.3526
O 2.1333 0.1994 0.7672
H -1.0983 -0.4320 1.2193
H -1.1312 -1.8337 -1.4583
O 0.8847 -2.3757 -0.4361
N -0.8408 0.6839 -1.3339
C -0.3171 0.3309 1.1511
C -0.0536 -1.8607 -1.4905
C 0.6490 -1.2291 -0.4744
C -0.0078 0.9812 -0.2054
16

H 2.1708 1.6738 -1.1958
C -0.0762 -1.7137 -0.1717
O 1.3222 0.0855 -2.1204
H -1.7496 0.7125 -1.6268
H -2.1634 -1.3185 1.8632
C -0.9320 0.7238 -0.9190
N 0.0640 1.6797 -0.9283
H -0.0228 -2.6523 -0.6403
O 0.3720 1.1433 1.3969
N 1.2966 0.2021 1.1515
C -0.4550 -0.4493 -0.2308
C 0.6045 0.5678 0.0527
H 0.5023 1.6160 2.2038
C 1.3085 0.9533 -1.2047
N -0.6846 -1.2528 0.9740
N -1.5572 -1.9711 1.3955
16

C 0.2186 0.3180 2.2424
H -0.4512 -0.1479 -2.7121
H -0.7777 0.0418 1.9236
H -1.5457 -1.4890 -2.1190
C 0.0743 -0.6250 -0.8681
N 0.3079 -2.9260 -1.3497
H -1.7256 0.1442 -1.5335
H 0.0438 0.5237 3.3069
H 1.6612 1.6021 1.4483
O 0.8043 1.5159 1.8763
O -0.3581 1.7208 -0.3474
C -0.9985 -0.5836 -1.8701
O 0.9208 1.7130 -0.6435
N 0.6666 -1.8490 -1.0473
H 0.8175 -0.5780 2.0652
C 0.3419 0.6191 -0.3721
23

C 1.6138 -0.2001 -1.5086
H 2.2824 0.6112 -1.6902
O -0.6386 -1.1246 1.7109
C -0.4487 -1.5802 -0.2927
C -1.5049 0.4831 -0.1977
H -1.0182 -1.8252 -1.1855
C -0.4311 -0.2624 0.5913
C 1.8248 -0.8538 -0.1402
C -0.4572 0.5733 -1.2207
H 0.1510 2.3035 0.0350
H 1.3859 -0.7555 -2.3919
H -0.1397 1.3559 -1.8382
H 1.0896 1.4631 1.3003
H -0.2579 -2.5304 0.1714
N -1.9568 1.3543 1.0210
H 2.1633 -1.8462 -0.3531
H -2.3845 0.1239 -0.6954
H -2.6535 0.7546 1.3935
C 0.1188 1.6234 0.8760
H -0.4066 -0.6306 2.4673
O -0.9534 1.9184 1.6789
H 2.1415 -0.5440 0.8460
C 0.4801 -0.4117 -0.5775
17

C 0.4176 -2.1426 -0.9439
H -1.1772 3.3940 -1.3880
H -1.7677 3.1366 0.2627
H -0.2658 0.9911 -1.5046
C 0.2130 -1.0984 -0.0303
H -1.4286 0.7262 -0.2625
H 2.2123 -1.6164 0.9821
C -0.6968 1.3974 -0.6255
H 0.7509 -3.0764 -0.6011
C 1.3888 -1.3788 1.6436
C 0.4747 -0.4324 1.1012
H 0.4140 -1.9832 -1.9936
O -0.8257 -1.6426 -0.3976
O 0.1074 2.2836 -0.0473
O 1.2489 -1.7614 2.7869
C -1.1359 2.7990 -0.5169
H 0.0700 0.4045 1.5349
16

O -1.3946 1.2771 -1.3647
C -1.1242 -1.8530 0.5735
N -2.5591 0.7243 -1.4985
C 1.7923 0.8258 0.1647
H -1.7349 -2.6925 0.5844
N 1.1227 2.0038 -0.0758
C 0.6751 0.9086 0.7461
H 1.1539 2.7565 -0.6199
H -0.8050 -1.4246 1.4861
H 2.8122 0.8726 0.0900
H 0.1191 1.1358 1.5781
N 1.2910 -0.3890 0.7028
C -0.9328 -1.1731 -0.6137
C -1.5701 0.1226 -1.0437
H 1.4424 -1.2840 0.7123
O -0.2879 -1.8111 -1.4218
20

N 0.4638 -0.2653 2.4535
H -1.5014 0.7038 0.9384
H -0.6800 1.6744 -0.8402
C -0.9001 0.7794 -1.2593
H 0.7559 1.6824 1.6388
H 0.9379 -1.1495 -1.4212
C -1.2325 1.1488 -2.7912
H 0.5167 -1.1063 2.9666
C 0.2598 -0.4821 0.9037
H 2.2502 0.8740 2.2137
H -0.3415 1.4316 -3.3438
H -0.1303 -2.1848 -0.5826
H 2.4521 -1.2337 0.7365
H -1.0494 -0.1735 -1.5460
C 0.5201 -1.3424 -0.4497
O -2.3057 1.2041 -3.2527
H -1.6008 -1.0672 0.6854
C -1.0671 -0.1435 0.4601
C 1.4584 -1.1234 0.5020
C 1.1940 0.7732 1.9879
19

H 1.9000 -0.5021 0.7810
C -0.0266 -1.0653 1.3027
O -1.3355 -1.5672 -0.5918
H 0.4494 2.5833 -0.8524
C -0.2834 0.1643 -1.5630
H -2.3466 -1.3896 1.3182
H -0.5025 0.5475 -2.5368
H 0.1440 -1.9864 1.8316
C 0.9541 0.4377 -0.7946
H 1.1704 -1.7050 -0.3341
H -0.2948 1.7784 0.5011
C -1.2301 -0.1886 -0.4666
H 1.4138 2.0228 0.5638
H 0.0729 -0.2156 1.9865
H -2.0536 0.5208 -0.5261
C 1.0264 -0.7456 0.1858
C 0.5956 1.7981 -0.1299
C -1.4733 -1.1155 0.7459
H 1.8200 0.6282 -1.4212
13

H 0.5845 -0.6681 -0.6072
C -0.8234 0.9516 1.5356
N 1.6541 -0.6187 -1.4580
N 0.2308 -2.1380 -2.3769
N 0.0008 1.6878 2.2473
N 1.4290 -1.6137 -2.5485
N -1.0193 1.3433 0.3647
H -0.2189 2.6264 2.3834
C 0.6439 -1.1148 -1.6088
H -1.3329 0.1828 2.0060
H 0.6382 1.2746 2.8617
H -1.6671 1.0220 -0.2178
H -0.1197 -2.9352 -2.5813
17

C 0.3790 -0.4063 -0.8810
C 1.1157 0.8215 0.6294
H 1.3468 -0.5764 -1.3002
C -1.4010 -0.9543 0.2849
H -2.4239 -0.6028 0.1088
H -1.0424 1.6843 -1.1591
C -0.3348 0.3518 0.2046
C -0.6417 -1.5242 -0.8371
H 0.0804 1.6700 2.2270
O 2.8795 -0.3937 1.9476
C 2.0992 0.0669 1.3685
N -0.0817 1.2396 1.3444
H -1.0045 0.3535 -2.2989
C -0.6362 0.6821 -1.3241
F -0.7692 -2.6019 -1.5879
H -1.1947 -1.3752 1.2549
H 1.6294 1.5651 0.0182
19

H 0.3283 -0.9223 -1.8998
C 1.4995 1.1156 0.7491
H -2.1267 -1.2422 -0.2944
C 0.0102 1.0042 1.3717
H 1.1049 -1.7689 0.5242
H -0.4536 1.8607 1.8192
C 0.0417 -1.7191 0.2501
H 2.1972 1.7099 0.1663
N 0.0382 1.3762 -1.3095
C -0.1825 -1.5745 -1.2056
C -1.1121 -0.8893 -0.2924
H -0.3414 -2.5287 -1.6717
H 2.0993 0.5632 1.4358
C 0.3038 0.9497 -0.0601
H 0.1256 2.2363 -1.7296
H -1.8798 1.4815 -0.2586
C -1.0738 0.7902 -0.3356
H -0.2177 0.0870 1.8910
H -0.3611 -2.5295 0.8498
15

H -1.0402 2.2977 0.2998
C 0.4354 -0.9307 -0.2959
H 0.3213 1.9629 -1.9201
H 0.9864 -2.6939 -0.0046
C 0.2653 1.4148 -1.0418
H 2.6319 -0.1702 -0.2248
N -1.8680 -0.9263 0.4233
H 0.3216 1.8465 1.2506
N -0.8826 -1.3495 -0.2245
O 1.3227 -1.8151 0.3088
H -1.6870 -0.2170 1.0986
C 0.4163 0.4424 -0.1492
N 1.7147 -0.3686 0.0175
H -2.7816 -1.1960 0.1662
C -0.1561 1.7032 0.2961
13

O 1.6241 0.0779 0.3684
N -0.9442 -1.6936 -2.1516
H 1.7177 1.5458 1.8446
C -0.4947 -1.0050 -1.0863
H -0.2721 -1.8614 -2.9477
H 0.8855 -0.0447 2.2492
H 0.0126 2.2457 0.5093
N 0.2905 -0.6837 -0.1509
N -0.5908 0.0261 -0.0270
H -1.9369 -1.9599 -2.3438
C 1.0844 0.7024 1.4594
C -0.2152 1.2429 0.8811
H -1.1608 1.4076 1.3955
19

H -0.1242 -2.2026 -0.6959
H 2.0183 3.0641 0.3109
H -0.5468 1.7144 0.3918
C -0.2650 -0.0315 -0.8143
C 0.3287 1.0855 0.0922
H -2.6056 -0.9608 0.6357
C -1.7540 -1.6651 0.6878
H 1.5191 1.4522 -1.7879
O 1.4814 3.0161 -0.5155
O -2.2208 -2.9526 0.3046
C 1.6093 1.6390 -0.7184
H 2.5633 1.1664 -0.4556
H -0.3888 0.1165 -1.8735
C -0.5327 -1.3207 -0.1970
H -1.3997 -1.7004 1.7276
N 0.6327 -0.4430 0.2132
N 1.1077 0.5424 1.2000
H -2.3468 -2.8500 -0.6657
H 0.9239 0.3301 2.1600
18

H -1.3928 1.7875 0.7700
H 1.8384 1.1943 -1.9073
C -1.3460 -1.5151 -0.6600
C 0.9064 -1.1542 0.4372
C 0.9451 0.8375 -1.3601
H 1.0022 -2.2078 0.1729
H 0.1716 -0.3627 2.2727
C -1.1711 0.8656 0.2149
C -0.2868 -0.7724 1.3609
H 0.4872 0.1453 -2.1080
N 0.2188 0.8731 -0.1362
H 1.9134 -0.7627 0.4754
O -2.0755 -2.2102 -1.0012
H -2.1321 0.6338 -0.2148
C 1.1044 1.7944 -0.1908
C -0.4235 -0.5363 -0.1555
H 1.4653 2.6524 0.3731
H -1.2248 -1.2624 1.6567
16

H -0.7151 0.7803 1.7244
C -0.4960 -0.1360 -1.3412
C -1.4242 -0.0781 -0.4781
C 1.6030 0.4060 0.0555
H -2.4131 0.1560 -0.3042
O 1.6450 1.7436 -0.0570
H 2.5169 0.0016 -0.3102
H -1.4978 -0.8726 -2.8902
N -1.5188 -0.3640 -2.0453
H 0.0906 -1.7159 0.5506
H 1.5814 0.0868 1.0809
N -0.8205 0.1633 0.9492
C -0.4463 -1.0560 1.1877
H -0.5325 -1.4899 2.1442
O 0.7279 0.0861 -0.9616
H 1.6998 2.2890 0.6954
18

H -1.4502 1.5400 2.7068
C 1.6994 0.7758 -1.4339
N 0.1496 0.6757 1.0366
O 1.8698 -0.1942 -3.5051
H -1.4350 -1.1506 0.8963
H 0.7955 -2.1440 -2.1102
N -0.1383 0.0251 2.3592
H -0.9713 0.7499 -0.8231
C -1.0640 -0.1851 1.1714
C 1.2952 -0.1733 -2.4085
H 1.8923 0.5009 -0.4265
H -0.7375 -1.1431 -1.9170
C 0.3292 -1.1724 -2.0832
H 0.1379 -0.8673 2.7604
H -2.4510 0.0172 2.9520
C -1.5447 0.4628 2.5275
H 2.1598 1.6827 -1.7394
N -0.5368 0.5998 0.0367
15

H 1.2443 -0.7649 -1.3343
O -1.6967 0.4344 0.9978
H -1.0405 -3.5101 -0.1915
O -1.4102 -0.7833 0.4780
H 1.4532 2.6085 -0.0410
H 0.6005 -3.1734 -1.0260
H -0.3682 1.5953 -1.1472
N -0.6168 1.2178 0.8231
H 1.1673 1.2877 1.6056
C -0.1242 0.8393 -0.4187
O 0.7954 2.9525 0.6099
N 0.4086 1.9503 1.4322
C -0.3173 -2.8202 -0.5980
C 0.3673 -0.4380 -0.8053
C -0.4627 -1.3956 -0.3844
22

H -1.1481 0.1665 2.5170
C 0.6302 0.1109 0.8245
C 0.0377 0.6861 -0.3988
C -0.1508 -0.0987 -1.7446
C -0.7135 0.8635 -2.7697
H 1.7723 -0.9727 -0.5321
H 0.2949 0.7318 3.3303
H 0.3376 -1.8300 1.5798
H 1.7151 -0.9932 2.2432
H 0.2269 -1.0135 -2.1705
H 2.3574 0.7011 -0.3072
H -0.3190 -0.8395 3.7424
C 0.6920 -0.8464 1.8957
C -1.0798 -0.3320 -0.6106
C -0.1895 -0.1502 2.9089
H -1.7536 0.6103 -2.9184
H -2.0850 0.0495 -0.5404
H -0.1185 1.7501 -0.3680
H -0.1875 0.8140 -3.7180
C 1.4863 0.0537 -0.2156
H -0.6955 1.8999 -2.4790
H -1.1095 -1.3612 -0.2690
14

H 0.7506 -1.8389 0.9213
H -0.6585 0.9300 -1.8469
C -0.1295 0.2284 0.1659
H -0.6034 0.2355 2.2266
N -0.6264 -0.1451 1.3517
N 2.0176 -0.3256 -2.5512
C 0.0464 0.3850 -1.2762
H -0.0422 2.4133 -0.2157
C 0.0878 1.6399 0.4963
H -0.9312 -1.9617 -0.2707
H 0.2997 1.9578 1.4929
O -1.2195 -2.1243 0.7041
C 1.1253 -0.0959 -1.8857
C -0.1167 -1.2984 0.6874
17

H 1.7962 -1.1373 -0.8121
C 0.3698 -0.1368 0.3024
H -2.1232 1.1238 -0.4488
H 2.2978 0.8412 0.7364
C -1.6379 -0.6431 0.6321
C 1.4498 -0.0879 -0.9768
O 0.7418 -0.9802 1.1548
H -2.3533 0.9075 2.0610
H -2.3174 -1.3398 1.0204
H -1.0084 -0.7859 -1.4765
H -0.1959 -1.8618 -0.1232
C -1.5819 0.6813 0.3445
O 1.3567 0.3015 -2.1994
C -0.6292 -0.8630 -0.4658
C 2.3950 0.9289 -0.3721
O 3.0504 1.7832 -0.9210
O -1.6104 1.2684 1.5442
16

N -0.0588 -2.0541 0.7488
N -1.4994 -1.9422 0.7911
N -0.7203 1.4910 0.1485
C 0.3612 0.4435 0.2536
H -1.7334 1.5640 0.3625
H 2.3508 0.2293 -0.1811
H 0.4202 -2.4722 -0.0017
H 1.3645 0.9025 -1.5711
H 1.9403 1.9167 -0.2625
H 0.5890 0.2516 1.2860
C 1.6004 0.9190 -0.5146
H -2.0505 -2.1491 1.5668
O -0.3153 2.5031 -0.2868
N -0.8433 -1.0870 0.2968
C -0.4902 -0.3013 -0.7614
O -0.9151 -0.2148 -1.8749
24

H -1.1260 -2.8287 -0.6640
C -0.4966 -1.9139 -0.7630
C 0.9134 -2.2549 -1.0144
N 1.0272 1.3150 0.5101
H 0.9452 -1.7068 2.3089
H 0.4304 2.8437 -2.1642
C -1.0725 1.1990 1.3984
H -1.3786 -1.4869 1.1620
C 0.1930 1.3718 -0.4749
C -0.4503 -1.2303 0.6577
H -1.6950 1.7778 0.7492
H 1.8620 -0.4936 -0.4575
H -0.9436 -1.5318 -1.6995
H -1.1119 1.9833 -1.8996
C -0.2327 2.4252 -1.4247
H -1.5690 1.1542 2.3449
C -0.2330 0.2967 0.4592
H 0.8125 -0.2884 -1.8190
C 1.0578 -0.9356 -1.0243
O 0.6330 -1.6252 1.4222
H 1.5872 -3.0547 -1.1607
H -0.3771 3.2794 -0.7649
C 0.3786 0.9706 1.7073
H 0.8459 0.7343 2.6110
19

N -0.2671 0.0842 1.3155
H 0.8530 1.2511 -2.1162
C 0.0368 -0.8181 0.1683
H 1.6755 0.2673 1.4780
H 1.6205 0.5627 -0.9643
H 0.9709 0.0818 2.9625
N -1.2466 2.9566 -1.2092
C -0.7377 -0.6842 -0.9748
H -2.2014 0.2434 0.2758
N 0.4867 -1.7787 -0.8040
C 0.9021 1.4235 -1.0350
H -1.9196 -1.4007 0.8858
H 1.4896 2.1430 -0.4494
N 0.9235 -0.2507 1.9726
H -0.1181 -3.0707 0.4344
C -0.3649 2.1995 -1.0107
N 0.4326 -2.2273 0.5176
C -1.4482 -0.5158 0.4722
H -1.0877 -0.4668 -1.9189
14

H 0.9607 -2.1247 -1.8037
C 0.9168 -1.8121 -0.8037
H 2.1387 0.0438 -1.0224
H -1.8908 0.8568 0.1486
H -1.3257 2.6090 1.4584
O -0.4540 0.1947 1.8387
H -1.9462 -0.4266 1.0462
O -0.7121 2.5422 1.8774
H 0.7389 0.5351 -2.0236
C 0.3262 -0.6870 -0.3407
H 1.1905 -2.5919 -0.1321
C -1.1926 0.3272 0.7924
N 0.1694 0.4804 0.1186
C 1.0801 0.0532 -1.1542
14

N -2.0141 1.1054 0.2339
C 0.6910 -1.0481 1.0670
O -2.5671 0.5570 -0.6056
H -0.3358 0.0007 -2.7207
C 0.4370 0.3586 0.7602
H 1.3422 0.9440 0.6830
N 1.3430 -1.9340 1.6366
O 0.6709 -1.1841 -0.0867
H 1.2982 -1.5770 2.5993
H 0.7389 1.3137 -2.1859
H -0.1713 0.6481 1.6048
C 0.1091 0.5151 -1.9397
N -0.1348 0.2112 -0.6816
N -1.4071 0.0893 -0.3647
21

C -1.4992 0.1392 1.1030
C -2.1353 -0.7823 0.2464
H -0.4766 0.0526 -1.9721
H -1.7062 0.9936 1.6532
N -0.2237 -1.7261 0.7725
C 1.5221 -0.7880 -0.3878
H 1.6320 -1.6725 1.6705
H 1.8881 1.1113 -1.4413
C 1.3017 1.5101 0.5350
H -3.1779 -0.9737 0.2121
H -1.0817 -2.3990 -1.1431
C -1.0819 -1.6542 -0.3871
C -0.2588 0.5940 -1.0546
C -0.6594 -0.3400 0.0901
H 0.9798 2.5060 0.8181
N -0.5112 1.9710 -0.8393
H 1.9459 -1.4297 -1.1481
C 1.1185 -1.3578 0.7754
H -0.8801 2.3910 0.0066
C 1.2262 0.6968 -0.6890
H 2.0780 1.1578 1.1798
20

H 0.5510 -2.9677 1.5021
H -1.1620 1.4712 -2.5126
C -0.2205 0.2964 -1.6701
C -0.0530 -0.0727 -0.3147
C 0.0058 -2.0852 1.2185
H 2.7469 -1.0615 0.3297
H -1.1841 2.1469 1.2519
H 3.0140 0.3750 -0.6229
H -2.1472 -0.2275 -0.3632
H -0.6651 -1.6514 1.9418
C 1.2150 0.5408 0.3338
C -1.4393 0.3720 0.2223
H 1.1985 1.4777 0.8630
H -1.5464 2.4521 -0.4122
N -1.2702 1.8373 0.3254
H -1.7236 0.1308 1.2316
H 0.8928 -1.9580 -0.6629
N -0.7477 0.5406 -2.7242
C 2.3257 -0.1200 0.0327
C 0.2095 -1.4968 0.0298
20

C 0.5353 -1.7501 -0.6028
C -0.3858 -1.1586 -1.4535
N 0.6147 -1.1507 0.6199
H 1.1988 -2.5332 -0.8800
H -0.1238 -1.4434 -2.4417
C -0.0028 1.5755 1.2630
H -0.8883 -0.8625 2.1174
C 0.9659 0.7730 1.5255
H -1.6277 1.7421 -1.0449
O 1.9388 0.0684 -0.7937
H 1.3215 0.2322 2.3587
O 1.2046 1.1921 -0.9739
H 0.6120 1.4637 -1.7071
O -1.4591 -0.2903 -1.4143
C -0.8184 -0.7175 1.0441
H -1.4564 -1.4734 0.5913
C 1.0060 0.2188 0.1310
C -1.3737 0.8115 -0.5937
H -0.1911 2.5768 1.5540
N -1.0704 0.7255 0.7007
13

N -1.1391 1.6377 1.0953
H -1.4363 -0.4679 1.4124
H 1.6787 -1.6356 -0.7369
N -2.1259 0.1162 -0.5801
C -0.2280 0.8374 0.4922
C 0.5903 -1.4333 -0.1943
C -1.4321 0.2304 0.5320
H 0.1770 -1.9379 0.5185
C 0.9698 -0.6616 -1.1084
H 1.7097 1.0784 -0.1873
C 0.9279 0.3808 -0.1624
H 0.7494 -0.5668 -2.0946
H -0.4414 2.4221 1.0136
21

C -0.8257 0.0635 0.2081
C 2.4657 0.7105 -0.4530
H -2.1282 -0.4316 1.9059
O -0.0305 1.7376 -1.2558
H -1.6667 1.2600 1.8846
H -2.1200 1.2527 -0.8423
C 1.2029 1.0793 -1.1676
H -0.0798 -0.9012 -1.8858
C -1.1081 0.9299 -0.9207
C -0.5858 -0.3781 -1.1352
H -1.8713 -1.8955 -0.4701
H 3.0750 -0.1301 -0.7753
H 0.7530 0.1991 2.0615
O -1.4888 -2.6503 -0.7335
H 1.5202 1.1997 -2.2178
H 3.0146 1.5283 -0.0010
H 0.0405 -1.9391 1.7120
H -0.1994 -2.4496 1.2758
N 1.2180 0.3365 0.1022
C -1.3901 0.2804 1.5567
C 0.2045 0.1980 1.1512
18

H -0.0948 -2.6594 -1.7936
H -2.1219 0.3818 -0.9943
H 0.2496 2.5310 -0.2916
H 1.4710 1.2377 -0.6328
H 1.6816 2.7520 1.6647
H -0.6540 -0.0917 -2.0089
H 0.0302 2.1865 1.9016
H 0.3678 -3.1800 -0.2084
H 1.5173 1.0485 1.9888
H 0.6258 -1.1742 0.8961
C -0.0445 -0.8630 0.1029
C -1.1516 -1.5866 -0.4485
C 0.6676 1.5540 0.0576
C 1.0287 1.8885 1.4703
C -1.1299 -0.1009 -0.9981
N -0.0170 -2.4625 -0.7963
N -0.3516 0.5315 0.1384
H -2.0742 -1.9934 -0.0479
14

C 0.6491 1.9768 0.3621
H 2.1205 -1.3719 1.7942
C -0.7769 -0.8811 -1.5125
C -0.2607 1.8658 1.2050
N -1.6939 -0.4888 -0.8052
C -0.6460 -1.0190 -0.0875
C 0.5357 -0.4988 0.8518
H 0.9625 2.7002 -0.2825
N -0.4525 -0.7005 -2.7175
H -1.1590 -1.8329 0.3794
N 0.5279 0.8058 1.1263
O 1.4059 -1.3157 1.1212
H -0.9932 2.3645 1.6756
H -0.2194 -1.6044 -3.1103
14

C -0.4967 -0.9987 -1.4153
H 0.2760 2.0066 0.4208
H 1.1511 -1.9970 -1.3607
N 0.6043 -1.3230 -1.7783
N 1.1233 1.6770 3.4298
O -0.8051 0.1188 1.0179
H -0.4299 -1.0711 -3.5575
O -0.1808 0.0374 3.9877
C 0.3165 0.8086 3.2519
H -1.0547 -1.2098 -0.6264
N -0.5029 1.4352 0.5853
C -0.1081 -0.5904 -2.7106
H 0.2958 0.3338 -2.9266
C -0.1887 0.7724 1.6818
15

H -2.0524 0.6215 1.1001
C -0.4474 -0.7752 1.6947
H -1.7623 1.6565 -0.2811
H 0.8205 -2.0505 -1.0145
C -1.3532 1.1648 0.5406
H 1.4602 0.6440 -1.8654
N 1.9720 -0.5602 -0.0414
C -0.1899 -0.7137 0.5150
H -0.8394 1.8079 1.1975
N 0.9963 0.4187 -1.0219
C 0.7801 -1.0792 -0.5584
H -0.7909 -0.7605 2.6736
H -1.0452 -0.0908 -1.6513
H 2.7818 -0.2380 -0.4358
C -0.3302 -0.0453 -0.8517
15

H 0.8618 3.1431 -0.2348
C -0.1911 0.3693 -1.1655
N 1.4870 0.7231 0.8132
C -1.6122 -1.1658 0.2009
C 0.4513 1.1452 -0.0057
H -0.0755 0.6340 -2.2211
C 0.7767 -0.3255 -0.1999
O 0.1867 -1.9563 1.4518
H 1.4900 -0.9211 -0.7665
N 0.3871 2.4655 0.2747
H 2.2319 0.1416 1.1111
O -1.4230 -0.2103 -0.8284
C -0.1969 -1.1850 0.6652
H -2.0399 -2.1609 0.0023
H -2.3339 -0.6969 0.9026
19

O 1.0110 2.0186 0.6480
C 0.9392 -1.6550 -0.0751
H 1.9862 -1.3218 -0.0418
O 0.7039 -1.2103 2.2397
O 0.6344 -1.8043 -1.4514
H 1.1139 1.4202 1.3612
H 0.9653 0.5340 -1.6582
H -2.0541 1.1498 1.3058
C -1.2786 0.4051 1.4402
C -0.0707 1.5721 -0.0625
C -0.0291 0.6450 -1.1957
H 0.7272 -2.6901 0.2436
N -1.0487 0.8060 -2.1218
H -1.4038 -0.0455 2.3991
C -0.4013 0.1685 0.3256
H -1.0994 -0.0126 -2.6989
H -0.2783 -1.4550 -1.5303
H -0.7872 2.3517 -0.2591
C 0.3701 -0.8763 1.1315
17

C 1.2332 -0.2595 -0.5819
H 2.2526 2.5974 -1.2562
H 0.8621 1.8952 -1.6088
O 1.0970 -0.5892 0.9064
N -2.1724 0.7025 0.9335
C -2.0625 -0.6040 1.4839
O -0.0025 -0.0578 -1.1754
C -0.2758 -2.1136 -0.2169
N -1.1746 -0.0975 0.9064
H 0.5016 -2.6818 -0.5984
H -2.3997 -1.3930 2.0695
N -2.1807 1.8454 1.1454
C 1.6952 1.7273 -0.9382
H -1.2494 -2.4356 -0.0570
O 2.2345 0.3924 -1.1869
C 0.0692 -0.7334 0.0411
H 1.5719 1.8056 0.1336
16

C 0.8483 0.2372 1.0578
H 0.1860 2.2793 -0.2924
H 2.1691 -2.0118 0.3070
N 0.2024 -1.0178 0.6361
H -2.6795 3.5250 -0.4529
C 1.1057 -2.1027 0.3443
N 0.3103 -1.5657 -0.7871
C -0.7625 -0.6613 -0.3496
H -0.8879 0.1462 -1.0378
H 0.8436 -1.4181 -1.6393
O 1.6379 0.5770 0.2385
C -1.7924 3.0396 -0.4492
H -1.6940 -1.0814 0.0221
H 0.5124 0.5998 2.0246
H 0.8040 -3.0706 0.6956
C -0.8035 2.5254 -0.3175
15

N -0.3071 -0.5620 0.7252
H 0.3814 -2.3352 -0.6289
C -0.5139 1.8602 1.6677
C 0.5956 -1.4927 -1.1636
H 0.4903 2.2233 1.8937
O 0.8241 -2.0046 -2.2793
H 1.5035 -1.5769 -2.6976
H -1.0257 2.4382 0.8985
H 1.5933 -0.0761 -0.0504
O -1.0890 1.1354 2.4077
H 0.1404 0.9280 -0.6716
C -0.8371 0.2887 -0.3901
H -0.5935 -1.2069 1.3859
H -1.7283 0.6455 -0.8126
C 0.5660 -0.2650 -0.2846
15

C -0.9801 -1.3798 1.2887
H -1.6825 0.5270 1.9234
C 0.3972 -0.3439 -0.6777
C 0.5438 1.0310 -1.1944
N 0.4825 -1.6196 -0.1558
H 0.0785 0.3570 2.1509
H 1.1617 -2.1062 0.3340
O -1.5298 -2.2694 1.7883
H 0.8634 1.9691 -1.8743
H 0.7231 -0.4604 -2.8891
C -0.7950 0.0578 1.6361
C 0.6348 -0.0675 -1.9582
C -0.4084 -0.6307 0.4106
H 0.0298 2.6895 -0.0399
N 0.4810 2.2461 -0.7426
21

H -1.0330 -0.8149 1.5995
C 1.4743 0.6340 0.6738
C -2.0671 1.2154 -0.0594
C -1.3051 0.0952 -0.3708
O 0.7837 1.5181 -1.2432
C -0.6145 -0.5464 0.6476
O 1.7606 -2.1679 -1.5373
N -0.4653 -2.7168 -0.3109
H 0.3907 2.3707 1.1269
C 1.1255 0.3231 -1.2485
C 0.3152 1.2755 1.1868
H -1.9661 2.2600 0.1307
H -0.3872 1.1732 2.0174
H 2.4908 0.8930 0.3526
H 1.2933 0.2595 -2.3606
H -1.3802 -0.3564 -1.3501
C 0.0597 -1.5809 -0.0846
H 1.6705 -0.1079 1.4654
C 1.1032 -1.2518 -1.0516
H -3.0756 0.8649 0.0247
H -0.1732 -3.3398 0.3917
18

C -0.6562 -0.2783 -0.4488
H -1.1201 -0.2197 1.9779
H -1.7199 -1.9435 -1.1565
H 0.3405 -2.1581 -0.0623
C -1.7683 -0.9230 -0.8078
H 1.6347 -0.8243 1.7596
C 0.5581 -1.0935 -0.1340
O 1.5777 -0.7483 -1.0491
O -0.3843 -0.7845 2.1005
H -1.0153 1.5872 0.5599
N 0.9531 0.9161 0.9980
H 0.6167 1.5057 -1.9203
C 0.7372 -0.4587 1.2871
H 0.5742 2.9156 -0.5938
H -2.7565 -0.4915 -0.8565
C 0.5018 1.9003 -0.9171
H 2.0918 0.0199 -0.8024
C -0.1653 1.0788 0.0657
18

H -0.9572 -2.4135 0.4999
H 1.6458 -2.1118 0.1197
C -0.4610 -1.4786 0.8860
O -1.4005 -0.6608 -1.5823
H 0.5517 1.0206 -1.8107
N 0.4938 0.5664 -0.8907
N 1.2604 3.6611 0.5792
H 0.5120 -1.8838 -1.2057
H -1.4837 -1.0975 1.1925
H -1.8729 0.6063 -0.1974
C -1.0183 0.1509 -0.7353
C 0.7252 -1.6074 -0.1669
C 0.5046 2.8108 0.1345
H -0.3314 3.1232 -0.5305
H 1.2498 -0.0100 1.2290
C 0.5054 -0.2899 0.4959
H -0.0369 -1.7368 1.8813
N 0.1131 1.3507 0.1016
17

H -1.3177 1.1529 0.5646
C -0.7451 0.7033 -0.2479
C 0.6343 0.3116 -0.5145
H -0.1964 -0.2371 2.5980
H 1.0096 0.0025 -1.4699
H 1.5294 -1.4510 0.3853
O -1.0715 -1.1877 -2.8638
N 0.5404 -0.5510 2.0108
H -2.1316 -0.7888 -0.5319
C 1.0713 -0.5368 0.7252
C -1.6137 -0.2033 -1.2687
N 0.2037 1.6225 -0.6781
O -2.0373 -1.1037 -2.3994
H -2.1649 0.6173 -1.6996
H 2.6175 0.4779 1.0836
C 1.7318 0.3006 1.7105
H 1.9402 0.8709 2.5958
18

C 1.9286 -1.1043 -0.2357
N 1.3384 -2.2137 -0.2181
H 1.3219 -2.9115 0.4572
C -1.9836 0.0995 -0.5190
N -1.1662 1.2041 -0.5101
H -2.9911 1.2393 -2.1236
O -0.1041 0.3165 1.6033
H 1.5964 1.9389 0.7089
H -2.7847 -0.5609 -0.3535
N 1.8517 1.0012 1.0180
H 2.0955 -0.6954 -1.2271
H -0.4697 1.8966 -0.6247
C 0.8470 0.1986 0.6611
H -0.8203 0.7250 2.0924
C -0.5994 -0.1200 0.2021
N -2.2046 1.0791 -1.4960
H 2.8251 -0.8976 0.3245
H -0.6808 -1.1954 0.2403
17

C -2.3420 -0.9536 -2.5616
C -0.6170 -0.0432 0.7497
C -0.3353 -0.8127 -2.4675
C 0.8691 0.2969 2.0979
H 0.1202 0.5318 2.8249
H -0.9163 0.8499 0.2058
H -0.1368 -1.3157 -3.3766
C 0.6776 -0.2927 0.8070
H 1.4796 -0.4424 2.6184
H 0.3597 -0.1251 -2.0878
C 1.6076 1.6607 1.6232
H 1.3975 -0.7680 0.1983
H -1.3585 -0.7526 1.0856
O -1.4332 -1.0163 -1.7661
O 2.3770 1.4821 0.6883
O -3.3506 -0.9503 -2.9800
O 1.6012 2.6513 2.3403
19

N -0.4195 -1.6010 -1.3036
O -1.5312 -1.9933 -1.7852
H 1.4186 -1.7181 1.2824
H 1.3242 2.1271 2.3589
C 1.1173 0.0451 0.0901
H -1.3166 -2.6854 -2.3756
C -0.3107 1.2065 -2.2887
H -1.3901 2.2192 -0.8084
H 1.7666 -0.2875 -0.6917
C 0.1268 0.9129 -0.2919
O 0.5826 2.1642 1.7787
C -0.1995 -0.5992 2.0531
C 0.7811 -0.8838 1.2125
C -0.7111 1.5228 -1.2070
H -0.0841 1.1156 -3.2688
H -0.0424 0.0325 2.8897
H -1.1729 -1.0135 1.9625
H -0.5501 -1.8935 -0.3849
C 0.6112 1.3296 0.7780
11

H -1.5358 -0.9255 -1.2420
C -1.3203 0.6185 0.0673
N 2.6177 -0.6651 1.8613
O -1.5335 1.6826 -0.2519
N -0.3197 -0.2517 0.4458
C 0.9772 0.0435 0.2151
H 1.6474 0.9320 -1.5627
O 1.6132 0.7342 -0.6981
C 1.8763 -0.3205 1.0787
C -1.6471 -0.6624 -0.2329
H -2.3755 -1.1859 0.3194
18

H -0.3714 2.2593 0.5674
N -0.9976 -0.9719 0.9989
H -1.4209 -0.2374 1.4980
H -0.3350 -1.5191 1.4625
C -0.8415 -0.2229 -1.6185
H -1.5796 -0.6092 -2.3288
H -1.8977 -1.6480 -0.3239
C -1.1018 -0.9535 -0.3263
H 1.9818 -0.5469 -0.5891
C 0.7762 0.5956 0.1404
H -1.0089 2.0921 -1.9097
N 1.6746 -0.2567 0.3656
N 2.0822 -0.0776 1.9409
H 1.6537 0.7323 2.2458
C -0.2120 1.4119 -0.0917
H 0.1523 -0.3630 -2.0892
C -0.9030 1.2323 -1.2965
H 2.3485 -0.9170 1.3540
17

C 0.3182 0.9068 -1.3337
C -0.5796 1.2102 -0.3542
H 2.0412 -0.4099 2.3195
H -0.3699 2.1084 0.2400
H -2.4302 -0.5521 -0.2937
N 0.7008 -0.0956 1.1794
O -0.3116 -0.1123 1.8057
H -0.6304 -1.7626 0.4491
N 2.0868 -0.3490 1.3211
C -1.6669 0.1753 0.0628
C -0.3640 -0.7014 0.3595
H 2.3606 -0.3617 0.3763
H 0.9311 -1.0352 -1.5046
H -0.7773 -0.8051 -1.9707
H -2.3913 0.9282 0.4777
C -0.0060 -0.5592 -1.2380
H 1.0884 1.4151 -1.8962
16

O 0.3488 3.0005 0.9774
H 1.0202 -1.7910 2.1667
H -0.8075 -2.4135 0.7195
H -0.0566 -2.5771 -1.6319
N 0.6227 1.0217 -0.4108
O -0.2953 -0.4624 -1.7554
C 0.1137 2.1534 0.1110
H 0.0742 -0.3078 1.9358
H -1.6280 2.8464 -0.6218
H 1.6442 -0.7244 1.0158
C -0.8621 2.1303 -0.8312
C 0.0108 -1.6717 -1.0779
C 0.6931 -1.0509 1.4424
C 0.1716 -0.2740 -0.5892
C -0.1362 -1.6362 0.3623
H -0.9136 1.7568 -1.8128
18

H -0.8019 1.0339 2.9824
O -1.5384 1.3719 0.7440
H -2.9066 0.7433 1.5652
H -1.9405 -0.6334 1.1223
H -0.0726 -2.0706 0.4172
O -1.3696 0.2923 2.7767
C 0.1701 -1.1115 0.1574
N -0.0012 0.9746 -1.7085
H -0.1467 1.4823 -2.5235
C 0.5314 -0.0652 0.6257
N 2.1502 -1.6511 -1.4082
H 0.7854 0.6506 1.2931
C -1.8791 0.3919 1.4629
C 0.3408 0.0211 -0.8012
N 1.3016 0.4920 -2.0784
H 1.9470 0.9186 -2.6618
H 1.9238 -2.2312 -0.6438
C 1.5063 -0.6096 -1.3215
20

C -2.2394 -0.3035 -0.6874
H -2.6675 -0.4041 0.2897
H -1.3761 1.3353 -1.5316
H -0.7361 -1.1910 1.8411
H 2.2980 0.4172 -1.7114
C 0.1065 0.1510 -0.3471
O 1.1857 -1.9569 -0.2964
C 1.2018 -0.6622 0.2294
C -1.1842 0.4703 -0.9082
H 1.0847 1.7402 -1.7512
C -0.2851 -0.2526 2.0462
C -0.4125 0.3319 3.1876
C 1.3651 0.7677 -2.0269
H 1.0341 0.4369 -2.9698
C 0.4488 0.4388 1.0023
H -2.8743 -0.6983 -1.4619
O -0.6252 0.6884 4.1978
H 0.5912 -2.0305 -1.0303
H 0.9237 1.3979 1.1944
H 2.1608 -0.6765 0.7336
17

H -0.4880 2.4003 1.4298
H -1.2557 1.3732 -0.9035
C -0.5730 0.5554 -0.7785
C -0.2103 0.5396 0.7150
H -0.9987 -0.2213 2.4700
C 0.3516 1.6648 1.4526
C -0.7267 -0.4255 1.4455
H 0.5380 -2.1781 -1.8737
H -1.8667 -1.1754 -1.4163
H 1.3622 1.8438 1.0641
N -0.0027 -0.0107 -2.1081
H 2.4988 -1.6767 -1.3677
C 0.6186 -1.1703 -1.4682
O 1.9596 -0.9206 -1.0985
C -0.8743 -0.7572 -1.2670
H -0.8749 -1.4573 1.1864
H 0.5423 1.6161 2.5182
15

H -1.8725 0.3840 1.7630
O 0.5950 1.0891 -1.6402
C -1.5980 -0.4262 -1.0611
H -0.0738 -0.8140 -2.2059
C -0.0711 -0.1543 -1.3202
C 1.3801 0.6126 1.8440
C 0.3249 -0.0447 1.2004
C 0.5109 -0.6694 -0.0637
C -0.8637 0.1269 1.5845
O -1.9682 -1.4233 -0.5259
H 1.4348 0.9491 -2.0757
H 0.9225 -1.6451 -0.0203
H -2.3140 0.2561 -1.5262
H 1.2598 1.2727 2.6794
H 2.3333 0.4866 1.3679
21

C -1.3569 0.4218 0.4008
C 0.0647 -0.2423 0.1230
H 0.9474 2.1702 0.0616
H -0.6551 -3.4359 -0.9159
H -1.3461 2.3906 0.6769
N -1.7270 1.8810 -0.0768
H 2.1539 -0.1985 1.3322
H -0.3844 -0.7745 -2.4182
H -0.5640 1.1653 -1.6166
C 1.2196 1.6756 0.9864
C 0.0956 -1.7125 0.0624
C 1.5198 0.1941 0.5360
H 1.6453 2.5997 1.4329
H 2.1045 -0.1088 -0.3368
H -2.0549 -0.0438 1.0430
C -0.8967 -2.5010 -0.4469
H -1.9346 -2.3188 -0.1524
H 0.9810 -2.1768 0.4819
H 0.5902 1.3796 1.8353
O 0.3225 -1.2723 -2.3942
C -0.7248 0.9073 -0.6146
14

H 1.6567 -1.7019 0.5138
C -0.6479 1.4087 0.7873
H -1.3019 1.9347 1.5044
C 0.6087 0.3770 -1.6971
N 1.4180 -0.2510 -0.9223
C 0.9353 -1.5538 -0.2762
O -1.4345 1.0271 -0.2276
H -1.8431 -0.6838 0.8733
C -0.9041 -0.1269 0.7061
H 0.5209 -2.4958 -0.6162
O 0.7849 1.0687 -2.6095
O 0.4826 1.8670 0.7977
C 0.1173 -0.4333 -0.4757
H -0.3928 -0.4367 1.6420
15

H -0.0950 0.6062 -1.8421
H 1.0822 -1.7515 0.9709
N 0.1257 0.8174 -0.9334
O 0.6691 0.2849 0.4888
O -2.4779 0.8484 -0.8376
C 0.8032 -2.1236 0.0201
C 0.0342 1.4476 0.2692
C -1.9960 0.4188 0.1399
H 1.7625 -1.7148 -0.6581
C 0.6854 2.5064 0.8913
N 1.2696 3.3366 1.2709
N -0.6599 0.1008 0.1886
H 0.4906 -3.1068 0.2582
H -2.5123 0.2155 1.0804
O 0.8184 -1.8859 -1.3069
15

O -2.4196 2.0414 0.3304
N -3.5206 0.7013 -2.0794
C -0.4368 -0.3681 1.1018
H 2.1891 -0.2296 1.5298
C 1.9288 -0.2801 0.5085
C -2.6841 0.7660 -1.2436
C -1.8450 0.9785 -0.2740
N 2.8682 -0.0576 -0.4088
H -0.6405 -0.5997 2.0898
H 0.5406 -1.6654 -0.1159
N -0.6334 0.3488 0.0672
C 3.1463 -0.9357 -1.1728
H 3.2770 -1.7748 -1.7614
H -2.2953 1.7245 1.1860
C 0.5254 -0.6494 0.2423
15

H 1.9604 -3.8446 0.1198
N 0.6023 -1.7023 -0.9489
H 1.1377 -1.8228 1.3372
C -1.8349 1.9500 1.1779
N 1.0500 -0.6602 -0.3184
H -2.4383 1.1959 1.6147
H -2.1238 2.8896 1.6014
H -1.0310 0.1193 -0.5151
N -0.8266 2.1289 0.3707
N 1.2102 -1.9041 0.3006
O 0.3698 1.5161 -1.6062
N 1.8599 -2.9228 -0.0881
H 0.3304 1.7571 -2.5150
N 0.0091 0.0424 -0.0222
C -0.2751 1.2575 -0.5083
18

H 1.1139 -0.1479 -2.1552
C -0.8943 -1.0721 0.0939
H -1.2151 -1.5747 -0.8600
C 0.6392 -1.5023 0.0937
H 1.0880 -2.4946 0.1528
H 1.9465 1.2415 -1.3347
H -1.7286 0.4971 1.7669
H -0.4720 2.0091 -1.9945
C -0.9241 0.4353 -0.2045
C -0.7991 0.2301 1.2664
C -0.1880 1.2071 -1.3365
H -1.9178 0.7696 -0.4961
H 1.7753 0.2646 0.7391
H -1.5387 -1.6431 0.8010
C 1.1092 0.5409 -1.2873
O 0.0826 0.4103 2.3839
C 1.1892 -0.2680 -0.0065
H 0.7339 1.0971 2.3777
21

H 2.1127 -2.3736 -0.1395
H -0.4521 3.0134 -1.3656
H -1.5990 2.8229 1.6389
H -0.2744 1.4000 1.1656
H 0.5724 1.5857 -1.5187
H -1.6405 1.3020 -0.0180
O -0.0792 -0.9693 2.5819
H -1.2584 3.1632 1.0934
C 0.0845 -1.4580 1.5248
H 1.3977 -2.7270 -1.7491
H 0.9411 2.8362 -0.2982
H 0.7222 -3.4532 -0.3434
C 0.1307 2.2757 -0.7986
H -1.5101 -0.7628 0.3314
C -0.6913 1.6946 0.2442
C -0.4380 -0.8426 0.2429
H 0.5281 -2.4360 1.4880
O 0.6460 -0.2821 -0.3702
H -0.5039 -0.9349 -1.8859
C 1.2669 -2.6314 -0.7159
N 0.0446 -1.2229 -1.1081
23

H 2.4911 -1.7552 0.4274
O 1.8039 0.8267 0.1163
H -1.3081 2.6193 -0.5978
H 0.5424 2.2341 1.0908
H -2.3233 -1.0825 -0.0805
C 1.2731 -0.1212 0.8035
C -0.0061 1.4526 -1.5591
O 1.4791 -0.5624 2.1549
H -0.1272 -1.9512 -1.4462
H -2.3067 1.3824 -1.2721
C 1.6004 -1.4990 0.9783
H -1.0659 -1.7916 0.7887
C -1.2936 1.6192 -1.0028
C -1.2484 -0.9877 0.0897
H -1.3424 0.6547 1.4423
H -1.0403 -0.8040 -2.4208
H 0.5896 1.6933 -2.3808
C -0.6659 0.3560 0.6673
C 0.6210 1.2129 0.8831
C -0.7029 -1.0383 -1.3949
H 2.4363 -0.3857 2.3377
H 1.0683 -2.4014 1.2181
C -0.4743 0.3293 -0.8433
19

H -0.7290 0.5263 1.9018
H -1.3569 -0.4470 -2.5390
H 1.6650 1.9946 2.4945
O 0.9806 -1.7337 0.0197
N 0.3261 0.6583 -0.6369
H 0.5099 -1.1336 -1.7438
H 1.8305 0.2534 2.9207
H 2.1032 1.4240 0.1862
C 0.2763 0.4804 1.5182
H -1.3587 -1.9641 -0.3344
C 0.1920 -0.7981 -0.7201
H -0.0390 1.2249 -1.3575
N 1.0388 -0.6338 0.8076
C 1.2675 0.8318 0.5090
N -1.2491 -0.9514 -0.3760
H -2.2010 0.6682 -1.5283
C -1.9196 -0.3865 -1.5886
H -2.8327 -0.9837 -1.6976
C 1.4961 0.9700 2.1645
14

H -0.2723 -0.3121 2.0301
H 0.3429 0.3976 -3.3278
C 0.6588 1.3417 0.7188
N -1.1428 0.2337 -1.8230
N 1.0985 0.2049 -1.3109
N -1.4909 -0.7318 0.3956
H -0.1951 -2.3783 1.9972
H 0.6678 1.4100 1.8015
C 0.1626 0.3171 -2.2690
C -0.2308 -0.8097 1.0713
H 0.4972 2.2771 0.2050
O 0.2208 -2.0470 1.2059
C 0.8819 0.2826 0.0124
C -1.1985 -0.1856 -0.7071
17

H -1.9670 0.0395 -1.4506
H 0.1225 -2.0705 0.1440
H 1.3053 -1.0621 -0.6878
C 0.2581 -1.1362 -0.3837
C -0.1482 0.1347 0.3832
O -1.5019 0.2913 0.7705
H -0.4485 2.2258 0.0627
H -1.6698 -0.1986 1.5705
C -1.0253 -0.1495 -1.9177
O -0.3487 -1.2466 -1.6946
H 0.8876 0.9904 2.0646
N 0.1001 1.4505 -0.2315
H 0.5404 1.5441 -1.1243
C 0.9613 0.0785 1.4902
H 1.5981 -0.9266 2.2663
O 2.0633 -0.5351 1.3886
H -0.7274 0.5704 -2.6506
14

H 0.5547 1.1605 2.5920
H 0.5605 -0.4392 1.8815
C 0.1842 0.5524 1.8047
C -1.0995 1.2212 1.2747
N -1.5023 0.2377 0.4337
H 0.2177 -1.2275 -3.1395
N -0.1627 0.7399 0.4530
O -0.0612 -0.5556 -1.3684
H 1.6840 -0.3965 -0.4387
C 1.2133 -0.8851 -1.2365
H 1.8244 -1.7049 -1.5043
H -2.3720 -0.1784 0.2469
H -1.6645 2.0745 1.5015
N 0.6234 -0.5990 -2.5008
17

H -0.0387 -0.4882 3.1747
C -0.7571 0.9246 -0.0145
C -0.0263 0.6583 -1.2256
C -0.0292 -1.2986 -0.0992
H -0.9574 0.7694 2.3319
H 1.8396 1.0434 -0.0134
C -0.2737 -0.2818 0.8888
C -0.3570 -0.1069 2.2457
N 0.2063 -2.4320 -0.1602
H -0.0057 -3.3789 -0.0767
H -1.1912 1.8684 0.2453
H -0.5349 0.8813 -2.1594
C -1.1554 -0.4151 -0.3916
H 1.6166 1.8785 -1.6184
H -2.0693 -0.8617 -0.7112
H 2.2516 0.2760 -1.3805
C 1.4819 0.9633 -1.0357
18

N -0.1837 0.1338 0.9605
C -0.2124 -1.1001 0.5084
H -1.7206 0.5284 2.3524
H -0.3472 1.6270 2.3466
H 1.3428 1.1769 -3.2730
H 2.3280 0.0397 -2.5978
N 0.8259 1.5248 -0.8074
H 0.7458 -0.6336 -2.9722
C 1.2718 0.2727 -2.6840
H -0.7634 -2.0647 2.2245
O -0.5115 -1.7052 -0.5764
H -1.2472 1.4741 -0.3647
C -0.2657 1.0162 -0.4294
N -0.4862 -1.1828 1.8142
H 0.0630 0.2421 3.1283
N 0.3877 0.7359 -1.6643
H -0.6269 -2.6155 -0.2423
C -0.6000 0.5304 2.2767
18

H -1.3433 -2.9637 -0.9868
O -0.5803 -3.0559 -1.5792
C 0.4793 0.2565 1.2590
N 0.9897 -0.6961 -1.2513
H -0.8532 3.7471 1.0875
H -1.1631 -0.7442 -1.4439
H 1.2479 0.0111 -1.9190
H 0.2121 2.5804 0.1759
H -1.2606 2.0111 0.9696
H 0.0477 0.6620 2.1566
C -0.2616 -0.9185 -0.8577
H 0.2822 2.7949 1.9171
C 0.4310 -2.0751 -1.5574
H 1.2809 -2.6108 -2.0034
H -0.4709 -1.5585 1.2925
C -0.4199 2.7287 1.0529
C -0.1130 -0.7365 0.6849
H 1.4950 0.5673 1.0026
19

C 2.1986 0.5517 -0.6378
C -0.4675 -0.3542 -0.2470
H 0.9757 -1.3654 1.1863
H -2.4299 -1.6678 0.3713
C 0.8495 0.2405 -0.5532
N -1.7363 -2.3564 0.1941
C 0.6033 -0.4076 0.8434
H 1.0840 1.5347 1.6272
H 0.3668 1.6236 -2.3958
C -0.8326 -1.7469 -0.4829
N -1.1337 0.4765 -1.3217
H -1.1011 0.1379 2.7154
O -0.2953 0.6401 2.8842
H -1.5454 -0.0963 -2.0247
H -0.0953 2.1350 -0.7037
N 3.2225 0.9901 -0.6862
C 0.4889 0.6552 1.8061
C 0.0483 1.3149 -1.4068
H -0.2002 -2.3057 -1.1683
23

H 0.1481 2.0362 1.5617
C -0.4646 0.4303 2.4126
N -0.7737 1.6307 1.7000
H 1.9992 0.7571 2.8323
C -1.0850 -1.1333 -2.0942
C 1.4305 -0.4789 -2.0652
C -0.0867 -0.2874 -1.6142
C -1.6428 0.3013 -1.6893
H -2.6756 0.2472 -2.1288
C 0.9570 0.3254 -1.0404
H -0.8507 -1.5163 -3.0876
H -1.8734 0.3201 -0.6308
H -1.3420 1.2871 -2.0652
H 1.5294 1.0688 -0.5400
C 0.5518 -0.5784 1.9346
C 0.9564 0.4485 2.9632
H 1.5405 -1.0585 1.8999
H 0.0765 -1.2588 1.2123
H -1.5941 -1.9331 -1.5823
H 0.7839 0.6524 4.0267
H 2.0979 -1.3420 -1.8035
H -1.3065 0.0371 3.0122
O 1.6240 0.0445 -3.2141
24

H -1.0526 -2.6252 2.6911
H -0.4910 2.0892 -0.8859
H -3.5366 -2.0914 1.9794
C 1.5993 1.6822 -0.2871
H 0.7241 2.9295 1.2365
N 0.7322 -1.9684 -0.5244
C 1.1957 0.9935 -2.5720
C -0.4161 0.0883 -0.5402
H 1.1862 2.0638 -2.6702
H -0.7837 -1.3670 1.4430
H 1.4610 1.3725 1.7136
C 0.1572 1.4327 -0.3392
H -0.1973 1.6063 1.6692
H 1.0123 0.2801 -3.4347
H 2.1046 2.5858 -0.6024
H -0.0691 -2.5214 -0.8020
H -2.8239 -3.6028 1.2449
C -2.6628 -2.6173 1.6356
H 2.3761 0.9255 -0.3258
C 0.4657 -0.7826 -1.0664
C 0.6977 1.8394 1.0292
N 1.1688 -0.1265 -2.1973
H -1.4141 -0.0697 -0.2260
C -1.4338 -2.1164 1.8313
21

C 2.2271 -0.4591 -0.5092
N -2.6683 -2.6147 0.6268
C 1.7022 1.0019 -0.1530
H 2.1450 1.5047 -1.0330
H 0.7681 -0.3706 2.5640
H 1.7181 -1.3618 -0.8834
C -0.6841 -0.6268 1.0091
C -0.5349 0.1399 -0.2415
H -2.9989 -3.1772 0.1847
H -1.4357 0.7867 -2.6775
N 1.8441 -0.1312 0.8209
H -2.9368 1.4277 -1.8766
N -1.1447 1.1597 -0.7594
C -1.9440 1.1342 -1.8220
N 0.2155 1.0286 -0.6706
H 1.7538 1.9030 0.5139
C 0.5391 0.0598 1.5938
H -0.5027 -1.6630 0.7796
H 3.2686 -0.4136 -0.8138
H 0.2521 1.1079 1.7704
H -1.5836 -0.4361 1.5766
18

C 0.0797 0.7682 2.1906
O -1.7343 -0.3781 -0.6050
H -0.9605 -1.5140 -2.0327
H 0.1983 -0.2401 2.0649
H 0.2325 -2.1940 0.5760
C 0.4877 -1.8139 -0.3999
H -0.5220 1.1186 1.1016
H 0.4272 0.9174 3.1715
H -0.2119 0.8677 -2.5463
H 1.0284 -2.5762 -0.9201
H -1.7958 -0.2236 0.2989
H 1.6654 -0.2094 -0.4833
C 0.7423 -0.4139 -1.0358
H 1.5025 1.3834 -2.0166
C 0.6848 0.6967 -1.9917
C -0.6079 -1.0842 -1.1070
H -0.7394 2.9335 1.9250
C -0.4772 1.9620 1.8098
16

O 0.8208 -1.5407 1.6026
C 0.8213 -0.6342 0.5756
H 1.2571 -1.5605 -1.3311
H -0.0472 -1.3828 1.9676
O -1.0717 1.9233 -1.0649
C 1.5531 0.5588 -0.6736
C -0.2668 0.4209 0.6073
H -1.7415 -1.1166 0.5182
C -1.4471 1.1428 -0.0778
H 0.0374 1.0217 1.4303
H 1.5806 1.5782 -0.8588
H 2.4440 0.0046 -1.1005
O -2.6100 1.4458 0.3782
H -1.3825 -0.7106 -1.1638
C -1.2888 -0.4000 -0.1363
C 1.3413 -0.7504 -0.6728
19

H 2.0571 -0.1055 -2.7636
H 0.1991 -2.6094 1.0836
C -0.7217 -0.2938 0.4618
N 0.6700 -2.5946 0.1672
C 0.6993 -0.8490 -1.4683
H -1.4202 1.3521 2.3717
C -0.2477 1.4276 0.6586
C -0.9690 2.1780 1.7622
H -2.2133 1.1124 -0.3714
C -1.1585 0.8426 -0.3522
H 0.0791 -1.3885 -2.1672
O -1.0079 3.3689 1.9215
H 1.6167 -2.6231 -0.2674
C 0.5412 -1.0364 -0.0102
H -0.8026 0.9782 -1.3600
O 0.9743 1.6844 0.4569
O 1.7593 -0.1844 -1.8625
H 1.3696 -0.5701 0.5473
H -1.4248 -0.6894 1.1920
23

H 2.8769 0.1432 -0.9615
C 1.0882 -0.8568 -0.6580
H 0.0278 -0.8490 -2.6520
H -3.1780 1.7910 0.6041
H 0.8493 0.6461 -2.2399
C 0.5466 -0.2838 -1.9090
H -0.6380 0.7890 3.0469
H 1.4680 1.2377 2.4345
H -1.1629 -1.0578 -1.0082
H -0.2386 -2.4073 -1.4589
H 0.9226 -0.6483 0.3535
C -0.1115 0.2025 2.3292
N 0.6068 1.0090 2.6140
N 2.1093 -1.8372 -1.0624
O -1.4765 2.0556 -1.2883
C -2.2076 1.4438 0.9086
H -2.3195 0.4333 1.2566
H -1.8094 2.0811 1.6610
N 2.6538 -0.7759 -0.8089
C -1.5562 1.6029 -0.2861
C -0.2182 -1.3841 -1.2782
H -0.3464 -0.6988 1.9993
H 2.1134 -2.6361 -1.5963
17

H 1.8818 -0.2803 1.3213
H 2.4987 1.2200 -0.5870
N 1.2774 0.1889 0.6857
O -2.6134 -1.9208 1.1541
C -1.5243 -1.8961 0.8956
N -0.0932 -0.0209 0.8678
C 1.4574 0.8592 -0.5876
H 0.8139 1.7634 -0.5802
C 1.1966 -0.0783 -1.7570
C -0.9271 0.8465 1.2955
H -2.3404 0.4480 -0.0632
H 1.0722 -1.0845 -1.4699
H 1.2937 0.0978 -2.8125
H -1.0560 0.3519 -1.0458
O -0.5903 -2.3128 0.5599
C -1.2659 0.3517 0.0041
H -1.0811 1.4662 2.1192
21

C -0.4907 1.4476 -0.9536
C 1.1036 -1.7478 -0.2079
H -2.2898 3.1909 1.1996
H -0.7109 2.2537 1.4426
H 0.6472 -0.2928 1.5889
H 1.5955 -0.3333 -1.8176
C -1.7279 2.2783 1.1266
C 0.1106 0.4813 -0.3405
C 1.1822 -0.3991 -0.8408
H -3.2270 1.3177 0.0132
H 3.0599 -2.0815 -1.0005
C -1.4152 0.4549 -0.5354
H -0.3610 2.4172 -1.3246
H 3.0089 -1.6961 0.7257
C -2.3091 1.0875 0.5510
H 0.2755 -2.4145 -0.3176
C 2.5262 -2.2101 -0.0790
C 0.7438 -0.5018 0.5450
H -1.8495 -0.2637 -1.1992
H 2.5441 -3.2599 0.1528
H -2.4163 0.2714 1.2715
17

N -0.5246 0.4091 -0.6183
H -0.4207 -1.9162 -0.6027
C -1.0271 1.6559 1.1743
H -1.2434 0.2049 -1.2825
H 2.0818 -1.2691 -1.9740
H -1.6682 1.6689 2.0437
H 1.2826 -2.2139 -0.0630
H -1.0776 2.5449 0.5765
O 0.8437 -0.4016 0.6097
O 0.7771 0.0590 -2.5789
C 1.0977 -0.8027 -1.7797
C -0.4233 0.3321 0.9169
N 0.6549 0.9619 -0.1282
H -1.5128 -0.8895 1.8496
H 1.1850 1.6993 0.3158
C 0.5805 -1.4658 -0.4625
O -0.6058 -0.5771 2.0032
20

H -1.8035 -0.7878 -1.0337
H 1.6516 -1.6789 0.2846
H -0.9253 -1.8127 1.8962
O 1.6595 -0.8972 0.7916
O -0.8429 -0.9424 2.2728
H 1.1817 0.8864 1.4125
H -0.5303 0.1165 -1.9163
H -2.5579 1.0602 0.0540
H 2.5918 1.5416 -0.4097
C -0.8113 -0.3180 -0.9522
C 1.0239 0.3290 0.5009
O -0.0536 -1.6429 -1.0205
H 1.8797 0.2799 -1.4274
H -0.1604 -1.9853 -0.1444
C -1.5341 1.0569 -0.3177
O -0.5076 0.3556 0.3537
H -1.6357 -0.4685 2.0528
H -1.3169 2.0254 -0.7479
H 1.0373 1.8514 -1.0037
C 1.6541 1.0308 -0.6455
19

C -1.0021 -1.4901 1.5278
H 2.4108 1.1832 -1.3725
H 1.1145 -1.0764 1.4910
H 0.4098 -0.6532 -2.4821
C 0.0617 -0.1755 -0.2125
H 0.1154 0.0957 2.2368
C 1.6191 1.9374 -1.0765
N -2.1117 0.7155 0.0848
H -2.0524 -1.2641 1.4716
H -1.7266 0.9910 0.9669
H 1.2511 -1.5550 -1.1236
H -1.7880 -0.4735 -1.5533
C -1.4086 -0.1199 -0.5859
C 0.8261 1.1675 -0.1755
C 0.5484 -0.7857 -1.4287
O 1.6755 3.0362 -1.6771
H 0.7785 1.6198 0.7994
C 0.1255 -0.6123 1.3699
H -0.8468 -2.5408 1.7396
18

H 2.6595 -1.1899 -1.9391
H 2.0981 0.5603 0.5027
H -1.8375 -0.3353 -1.5187
H -1.4906 1.5270 0.1923
C 1.0555 0.4714 0.7098
C 0.1546 0.9967 1.7073
O 1.7948 -1.1635 -1.5209
C -1.0206 -0.6220 -0.9076
H -1.9053 -0.9370 1.0950
H 0.1169 2.0500 -0.2613
H 0.3161 -0.3541 -2.4570
H -0.0054 0.2163 2.4481
C 0.4920 -0.6822 -1.4186
H 0.0117 1.9552 2.1944
C -1.1008 -1.2195 0.4478
C -0.4208 1.2714 0.2796
H -0.9566 -2.2917 0.4541
C 0.0382 -0.2532 -0.0078
19

H -2.0304 -1.2096 -0.5394
H 0.9057 1.6328 -1.5524
C -0.0363 -0.3626 0.0177
H 2.5026 -0.3494 2.3230
H -1.1683 -2.0197 -1.7752
H -0.2224 2.8287 -0.8977
C -0.0545 1.7357 -1.0008
H -0.2348 -1.5616 2.0453
O 0.2614 -0.7586 -1.3355
C -0.2376 1.0635 0.3493
C 0.8360 -0.3938 1.1144
C 1.8079 0.2193 1.7257
H -1.6826 0.9085 -2.2455
C -1.1568 -1.0564 -1.1977
H -0.0144 -2.5400 0.5222
C 0.0261 -1.5769 0.9840
H -0.4197 1.5060 1.3189
C -0.9955 0.6509 -1.4295
H 1.9137 1.2832 1.5732
16

O -1.3940 2.0121 0.9518
C -0.8562 1.1884 0.2693
H 0.7059 -1.6925 0.0168
N -1.4464 -2.9038 -1.4516
H -0.5986 0.6377 -2.4273
H 1.4078 0.8825 -1.1189
C 0.4608 0.6352 -0.6635
C 1.2609 0.3917 1.8706
N -1.9636 -2.4865 -2.0593
C 0.4453 -0.6884 0.0648
H -1.7544 -0.0562 -1.2812
H 2.2293 0.0976 1.4862
C -0.8216 0.4735 -1.3739
C 0.2425 0.4687 0.8237
H 0.7283 -0.3078 2.5351
H 1.3538 1.3478 2.3572
21

H 0.4381 -2.7883 -0.1773
C -0.4526 1.1042 0.9269
C -0.7635 -0.1732 0.6435
C -0.6372 -0.3132 -1.7814
C 1.5900 -1.1975 0.5613
H 1.2705 -1.5903 1.5101
H -1.5462 3.8989 1.4750
H -1.4660 -0.9190 0.8233
H -0.0593 -0.5071 -2.6446
C -1.6111 1.8734 1.4819
H -2.1965 1.2789 2.1338
C 1.8100 -1.2357 -0.9838
O 0.9375 -2.0322 -0.3446
O -1.8618 3.0621 1.0832
H 2.1201 -1.8948 -1.7665
H 2.1150 -0.3148 0.8573
O -0.3536 1.0637 -1.4412
C -0.2443 0.2870 -0.4864
H -1.5796 -0.7887 -1.7757
H 2.0113 -0.2875 -1.3517
H 0.4793 1.4743 1.2569
16

H -1.4366 0.0729 0.6296
O -1.0839 -2.1630 -0.9044
O -2.0017 -1.6486 -1.0230
H 0.1731 2.2378 -0.4317
C -0.0113 1.4496 -1.1412
H 0.7322 -1.3625 -1.0176
C 0.7163 0.3092 1.3543
H 1.7125 0.5007 -1.5420
N 0.1686 -0.9608 1.7338
H -0.4804 -0.6939 2.4753
C -0.2137 -1.1969 -0.5496
N 0.8560 0.8769 -1.8183
H -1.0737 1.4310 -1.3156
C -0.4243 -0.3234 0.5734
H 0.7549 1.0049 2.1995
H 1.6120 0.4661 0.7775
15

N 0.4169 -1.1964 -2.2462
H 1.5879 0.0587 0.4357
H 1.0131 -1.9244 -2.4112
N -0.3618 1.0489 0.5860
H 1.3427 0.7183 2.7273
C 0.4775 1.1219 2.2091
H 0.6073 2.1934 2.1179
O 0.3621 0.0816 -1.9581
H -1.3620 -1.0234 -2.9542
C 0.6982 0.2987 0.8746
O -1.4274 -1.0676 0.7849
H -1.5697 -0.3650 -1.4945
H -0.3852 0.9521 2.8338
C -0.6239 -0.2315 0.6308
C -0.7757 -0.6655 -2.1359
19

C 0.6455 -0.0655 -2.4860
O -2.4309 -0.5819 1.3727
H 0.5769 -2.0943 0.6514
H 1.2305 0.2579 1.7538
H 0.6469 0.7840 -3.1756
C 0.2703 -0.2106 1.9888
N -0.7113 -0.6785 -0.3937
O 1.7653 -0.1716 -1.5572
C 0.0123 -1.1869 0.8297
C 0.3293 0.1612 -1.0799
H -0.3114 0.6340 2.3993
H 2.3653 0.6446 -1.5409
H -1.7530 0.8091 0.7896
O 0.2721 1.4300 -0.5573
H 0.4466 2.1712 -1.1396
C -1.3685 -0.5133 0.7373
H -2.6799 0.4569 1.4743
H 0.3943 -0.8569 2.8563
H 0.2995 -0.9894 -2.9229
16

H 0.1169 -0.0967 2.9171
H 1.0891 1.8661 -1.6910
O -0.1090 -1.3225 -0.0261
H -0.6792 -2.1548 1.7432
H 2.5648 -0.5033 -0.9123
H -0.4757 -0.0560 -2.7586
H -1.8917 -0.9354 1.1437
C -0.1706 -0.0761 1.8691
C -0.5381 0.2819 -1.7307
C 1.6869 0.0532 -0.7990
H -1.5369 0.3502 -1.3378
C 0.7325 0.9032 -1.3685
C -0.0756 0.9161 0.9297
H -0.2649 1.9903 0.9822
C -0.8459 -1.2266 1.2172
C 0.3974 0.0105 -0.1781
17

H -1.9056 -0.9897 1.3857
H 1.3519 -1.2165 0.4799
O 0.1776 -1.8697 -1.3852
C 0.0163 1.5615 1.9482
H 0.2628 0.7121 -2.7768
C 0.2032 1.5298 0.6135
H 0.4068 2.1863 2.7023
C 0.1879 0.7293 -0.7283
O -1.0252 0.7330 2.2018
H -1.7899 1.7977 -0.4755
C -1.1452 -0.2464 1.2563
N -0.5785 -0.3472 0.0109
H 2.0071 -2.9798 -1.5845
O 0.7644 0.8249 -1.9527
C 1.2902 -2.3677 -1.1669
C 0.6896 -1.3316 -0.3188
C -0.9135 1.2742 -0.2100
16

C 1.5468 0.3218 0.1052
O 0.0791 1.8187 -1.6750
O 2.7504 0.2774 -0.1479
O 1.0081 -1.0341 0.6818
O 0.4098 -0.4557 -1.6937
H -0.4169 -0.9083 -1.9130
H -0.8591 0.0066 1.5998
C 0.3356 0.6671 -1.1026
H -1.9933 -0.2408 0.0553
C 0.1586 -0.0674 0.8345
N -1.5957 -1.9188 1.0630
H -0.3619 1.5917 -0.6234
H 0.8669 2.0680 0.7856
C -1.2370 -0.7017 0.6177
O -1.8360 -2.6119 0.2403
N 1.1445 1.1875 1.1725
15

H -0.8206 -1.9199 -1.1022
C -0.4923 -1.8633 -0.0976
H -2.1460 1.5626 0.2179
C -1.2826 0.9574 0.1760
N -0.3766 -4.3139 0.7387
H 1.1684 3.0643 -0.0185
H 2.5351 1.9570 0.3230
C -0.6791 -0.3955 0.3724
F -0.4915 1.4228 -1.0560
O 0.3715 -1.1933 0.6704
C 0.8497 1.1887 -0.7187
C -0.3973 -3.2160 0.4569
N -1.0106 0.3298 1.3559
C 1.5605 2.0696 -0.0694
H 1.2112 0.3498 -1.2489
16

H 2.4561 -2.0420 2.0442
C -0.9799 1.5836 -1.1877
H 0.0568 -2.7641 1.0993
C 0.3493 -1.7783 0.8964
H 0.4405 2.5333 0.9673
H -1.1396 -1.2348 -1.9153
O 1.1580 0.6165 0.6451
H -1.4590 2.4814 -0.8620
H -1.4066 1.3638 -2.1550
O -0.9078 -1.5634 0.1077
C 1.0476 -0.6731 0.9792
C -1.0443 -0.8595 -0.9238
C 0.5720 1.7232 0.2921
O 0.4643 1.8332 -1.0394
O -1.2659 0.3651 -0.5395
N 1.6584 -1.5850 1.5912
18

C 0.2258 -0.5057 -0.9184
O -0.1278 1.2105 -2.9064
H -0.2523 -2.6857 0.2592
O -0.2621 1.0897 0.9330
H -1.1493 -1.1498 0.5692
H 0.6068 1.8646 -2.7210
H -2.5971 1.5686 -1.2721
C 1.0452 -0.1102 2.3808
C -0.6629 1.1258 -0.2553
O 0.6257 -2.3143 0.8875
N 0.6698 0.8359 -0.2935
C -0.1572 -1.4123 0.2499
C -0.3599 0.7644 -1.6683
N -1.6910 1.2749 -1.0517
H 0.1778 -0.6715 2.5065
H 0.7741 -1.1434 -1.5951
H 1.5453 -0.0783 3.2821
H 1.5892 0.3368 1.6139
22

H 2.1371 -0.9531 -0.4305
C -0.3010 0.0580 -0.2533
H -1.9645 0.8339 -2.3769
C -1.2346 0.5944 0.7207
H 0.7797 -0.7491 -2.0758
H 1.4484 0.1474 2.3034
C -1.0427 -1.2295 -0.6402
C -2.3640 0.9198 -0.2255
H 0.4990 2.0440 0.6997
H 3.3625 -1.5524 1.8692
H -3.3726 0.8581 0.1453
H 3.2084 0.1712 0.3766
C -1.9313 1.3152 -1.4322
H -1.5573 0.3355 1.6896
C 0.3106 0.9808 0.7014
H -0.9133 -2.0959 -0.0480
O 2.7135 -1.7181 1.2550
H -1.9307 -1.2967 -1.1915
C 1.3628 0.1873 1.2467
H -1.6698 2.3379 -1.5288
C 2.4028 -0.5358 0.5194
C 0.0571 -0.6529 -1.3241
17

O 3.2081 -1.4417 0.0728
H 0.1802 1.9151 0.8190
H 0.2589 -2.0776 -0.4782
H -0.0350 0.5531 1.9399
H 1.8968 -0.6759 1.4190
C -1.3270 0.1516 0.2405
C -2.3029 0.8862 -0.4214
H 1.3553 1.0205 -1.2659
H -3.9350 1.8828 -1.4986
C -3.1856 1.4249 -0.9462
H 2.6464 -2.3329 0.1676
C 0.6797 -1.1673 -0.1035
O 0.4373 0.8112 -1.5317
C -0.1888 0.8948 0.9230
C 1.9574 -1.1900 0.4620
H -1.7174 -0.8016 0.5567
C 0.0717 0.1468 -0.3548
18

C 0.3193 0.4580 -0.8390
H -3.1185 0.4567 0.5093
H -2.2415 0.1129 -0.8631
C 1.5483 -0.2318 1.3700
H 0.9122 -1.7106 -0.9059
H 2.0323 -0.9000 0.6759
H 2.3115 -0.0612 2.0933
H -0.6555 -0.6914 1.5263
C 0.0898 0.0150 1.7777
C 0.7431 0.7895 0.7295
H -0.7779 0.2381 -2.7235
O -2.4416 0.5908 -0.1130
C -0.3284 -0.4119 -2.0503
C 0.4558 -0.8058 -1.0819
H -0.0672 0.3283 2.7748
H 0.9230 1.8163 0.9506
H -0.3304 -1.3472 -2.5553
H 0.6257 1.3542 -1.2755
17

C -0.7051 0.5705 0.3984
C 1.5217 -0.5686 -1.4208
H 0.8276 -0.4040 2.0904
O -0.1645 1.5550 1.2322
C 0.7506 0.9219 0.3824
H -1.3562 0.8058 -1.6909
H 1.4727 1.5414 -0.1222
C 1.2673 -0.2879 1.1152
H -1.6179 -1.2466 0.8465
C -1.6409 0.9037 -0.6552
H -2.1825 1.8312 -0.5076
C -1.8425 -0.3886 0.2080
C 1.3723 -1.0909 -0.1136
N 1.8376 -0.5347 -2.4812
H -2.8937 -0.5237 -0.0244
H 0.9493 -2.0765 -0.1424
O 2.4040 -1.0080 0.8853
21

H -2.5417 -1.4251 0.7814
C -1.3702 -0.4670 -0.8271
H -0.2789 -1.3537 1.3983
N -0.6096 0.8162 1.6128
H 2.4653 -0.3913 0.6264
N 0.5777 0.5132 1.3502
C 0.1073 -0.5236 -0.7177
H 1.2182 0.1030 -2.3661
N -2.6454 -0.7434 -1.4214
C 0.8148 0.7462 -1.5310
H -0.0906 1.0356 -2.0782
H 2.5163 0.9893 1.7158
C -0.2257 -0.4433 0.8162
H 0.7402 1.8943 -1.3382
C 1.9691 0.0731 1.4783
H -3.2632 0.0661 -1.2751
H 1.7839 0.8224 -1.0425
H 1.9799 -0.6563 2.2916
H 0.4063 -1.5565 -0.9503
C -2.1365 -0.8475 0.0089
H -1.4174 1.3483 1.4677
12

N -0.0024 1.9404 -1.0771
N 0.9268 -1.6357 1.4551
C -0.9695 -0.5965 -0.2301
N 0.3015 -0.2267 -0.4624
C 0.1714 -0.9869 0.5461
C -0.8300 1.7688 -1.9532
H -1.4388 1.8107 -2.7746
H 1.2329 1.4614 0.5018
O -2.1233 -0.6482 -0.4846
N 0.4533 -2.0118 2.4150
C 0.5658 1.1239 -0.2289
H 1.7122 -1.9995 2.2929
18

H 0.4647 -0.3370 2.1171
C -0.0274 -0.5642 0.0007
C -0.4728 0.1878 -1.1463
H -2.0858 0.5563 1.9034
H 2.3415 -1.1069 -1.0181
H -0.3867 -1.8384 1.8104
H 1.8089 -0.4851 -2.5271
H 2.1493 1.7732 -0.1750
C -1.9529 0.6743 0.8467
C 1.8329 -0.2543 -1.4679
N 2.0524 0.8437 -0.5912
N 0.8601 0.7451 -1.1247
H -2.5843 1.3095 0.2462
O -1.4131 0.2316 -1.8406
H -2.3231 -0.3034 0.5230
H -1.0543 1.2713 0.8701
N 0.5974 -1.6519 0.2122
C 0.1932 -1.0516 1.3611
19

C -0.4817 -1.6134 -0.5914
C 1.1418 0.7431 0.5333
H -1.6896 1.4701 -0.1803
H 1.3088 -1.3939 -1.7678
N -0.7303 -2.9812 -0.6698
H 0.0783 -1.4536 0.3025
H -1.0553 2.9094 0.6049
H 1.2611 0.7713 2.6646
H 0.3544 1.1788 -1.4778
C 0.7037 0.6163 -0.6794
H -1.4668 -1.1665 -0.5291
H 2.0818 0.2664 0.7236
H 0.1930 2.1090 2.6553
O -1.0926 -3.9530 -0.6794
C 0.6219 1.3318 2.0296
N -0.1469 1.2367 0.9495
H -0.2464 -0.8307 -2.5986
C 0.2834 -1.1773 -1.7566
N -1.1188 1.9366 0.4669
16

C -1.0023 0.1508 1.5087
C 0.4130 -0.2735 -1.9626
H 1.4765 -0.2047 -2.2030
H -0.5372 1.9546 0.3376
N -0.2525 -0.6260 0.5161
O 1.1358 0.9615 1.1211
O 2.1970 -0.9939 0.5994
C 1.1871 -0.3489 0.6152
C 0.1133 -0.8126 -0.7349
H -2.0604 0.0790 1.2940
C -0.2287 1.4225 1.2392
H -0.2926 0.5330 -2.2369
O -0.6979 -2.1082 -2.8485
H -0.3328 2.0884 2.0914
H -0.8273 -0.1848 2.5153
N -0.2910 -1.6372 -1.8521
18

C 0.7557 -1.1193 -0.5009
H -0.5038 -1.8756 2.0822
C 0.8698 -0.0671 1.8434
H -1.7347 -0.6683 -0.1669
H -0.2795 3.0875 -0.4435
H 0.6152 0.3493 2.8192
H 1.4558 -1.8279 -0.0517
C -0.6044 1.1779 -1.6969
C 0.1348 -0.1148 0.4463
H -1.0866 -1.9859 -0.9860
H 1.9475 -0.0243 1.6957
H -1.6698 1.4171 -1.7814
C -0.0976 1.3518 -0.4976
C -0.1057 -1.0484 1.5352
H 1.1755 -0.8231 -1.4426
C -0.7675 -1.1109 -0.4051
O 0.0393 2.4006 0.1852
H -0.1441 0.8814 -2.6349
16

C 1.7146 -0.7859 1.3650
H -0.1225 -0.5599 -0.9921
H 2.6361 -0.8714 1.9278
H -2.9058 -0.3946 -0.0124
C 1.3652 0.2302 0.2643
H 2.3462 -1.7349 -0.6168
H -0.6997 0.2900 0.9656
H 0.9083 -0.9979 2.0381
O -0.4202 1.5939 -0.1811
N -2.5948 0.2893 -0.6512
C 1.9117 -1.0485 0.0467
H -1.3236 1.2338 -1.8945
H -3.3211 0.7752 -1.1211
H 1.9864 1.0039 -0.1456
C -0.1832 0.1671 -0.0825
C -1.2977 0.8097 -0.9103
17

N 0.3584 0.1498 1.7926
N 1.6753 0.2640 1.4129
C -0.2749 -0.3621 -0.4863
H -0.3977 0.6645 2.1169
C -1.2846 0.6636 -0.3258
C 0.7887 -0.2039 0.4987
H -1.2742 -2.1736 -1.1337
N -1.2760 0.0255 -1.5940
H 2.3366 0.1427 2.1464
H 0.1906 -1.7324 -2.0997
H -3.2578 -0.1027 -0.2475
H -1.2226 1.5596 0.2145
C -0.5407 -1.4308 -1.3728
C 1.9878 0.6067 0.0448
H 2.1034 1.5320 0.6269
H 2.4586 0.5086 -0.8910
N -2.3708 -0.1115 -0.7029
18

H 1.6742 -0.9580 -0.7948
H 0.8823 1.2025 1.6185
H -2.6752 -0.2518 1.0258
C -0.7495 -0.5055 1.3338
H 1.1916 -0.3558 2.3491
C 0.5169 0.2118 1.7355
C -0.1021 -1.2067 0.1735
C -0.0709 1.1113 -0.6233
H -0.3524 -0.3356 -3.3704
H -0.1940 2.1832 -0.4326
C 1.2902 0.9802 -0.8180
H -0.3195 -2.1877 -0.2255
C 0.8010 -0.3000 -0.5326
O -0.0918 -0.9466 -2.7796
H 2.1999 1.4783 -0.7297
H -1.1173 -1.2498 2.0647
O -1.8932 0.3342 1.0793
H -0.9903 0.7960 -1.0737
17

N 0.7708 0.9868 -1.7386
C 0.5952 -1.3194 -0.4908
H 0.6897 -3.1323 0.7753
H -1.4623 2.4219 -0.5214
H 1.1368 2.8165 0.8681
N 0.8058 0.1017 -0.5861
H 1.0830 -1.7988 -1.2826
H -2.4070 -1.6773 0.6860
C 0.4685 -2.0962 0.8402
C -0.9529 1.7796 0.1982
H 1.5971 1.5683 -1.7671
C 0.3023 1.2363 -0.4073
O -1.8585 -1.3637 0.0059
O 0.5150 2.2920 0.4026
C -0.5728 -1.4157 0.1976
H 0.9333 -1.7251 1.7356
O -1.6441 1.3254 1.0844
18

C 0.8313 0.2314 1.3014
N -0.2395 0.8175 1.5872
H -1.1250 1.3836 -0.5452
H 0.3712 2.2493 -1.0590
C -1.0443 -0.3526 1.1294
H -1.9476 -0.3424 1.7026
H -0.3960 -2.1585 0.5935
C 1.8021 0.1371 0.2615
C -0.0517 1.3117 -0.7471
H -1.0886 -2.0202 -1.5258
O 2.8737 0.7212 0.1683
H -0.9198 1.5030 1.7436
N -0.7672 -1.2783 0.2060
O 1.5629 -0.8550 1.2706
C -0.6148 -1.0516 -1.2219
H -1.0378 -0.4838 -2.0687
H 1.2203 0.0804 -1.8277
C 0.5706 0.1071 -0.9689
17

H 0.8570 0.2820 -2.1593
H -0.6185 1.2687 -1.9673
C 0.0613 0.5788 -1.4945
H 2.0003 -0.0830 -0.3843
H 1.8942 -1.5635 -0.8141
H -1.6685 1.1973 1.1284
C 0.7776 -0.2279 1.1683
C 1.2096 -0.9380 -0.1748
N 0.5874 1.0661 1.5140
H 0.7708 1.9013 1.0476
C -0.2262 -0.0113 -0.1627
H -1.7036 -1.4783 -0.2647
H -2.4376 0.9555 -0.3903
H 0.6904 -1.9502 0.0942
O 0.9315 -0.8478 2.2546
C -1.6222 0.6039 0.2238
N -1.5034 -0.7538 0.3811
16

C 1.1445 0.2024 1.5855
H 1.9502 -0.4558 1.3365
H 0.9468 0.3218 2.6257
H -0.8346 -1.3512 -2.0349
H -0.3483 -1.3481 1.9119
C 0.4993 1.0475 0.6474
O 0.8869 2.1540 0.3228
H -1.6470 0.9411 0.2064
O -0.9181 -1.5145 1.1426
C -0.1240 -1.0860 0.0470
H -1.0589 1.5400 -2.0702
C -0.7107 0.4984 -0.1659
H 0.5315 0.8211 -2.3540
O 0.7118 -2.0067 -0.2277
C -0.6862 -0.5692 -1.2743
C -0.3432 0.8053 -1.6987
17

H -1.4582 -1.9468 0.2971
C -1.3894 -0.9234 0.3390
C -1.0943 0.2736 -0.1184
O -2.4330 -0.1063 -0.4537
H -2.8853 0.7371 -0.3246
H 1.9922 -0.5174 -1.9509
C 2.1956 -0.3881 0.1451
C 1.2440 -0.0852 -1.3486
N 0.3151 0.5075 1.2649
H 2.2390 -1.4680 0.2109
C 1.0238 0.3698 0.0091
H 2.9705 0.0869 0.7649
H -0.3206 2.1457 -0.6114
H -1.6552 -0.0935 2.2807
C -0.1124 1.3074 0.0172
H 0.3799 0.1203 -1.9620
C -1.0116 -0.0197 1.4406
19

H -1.5453 1.5559 2.0539
N 0.9262 0.6686 -0.5483
H 1.5833 -2.7090 0.0281
H -0.8337 1.8430 -1.8042
C 1.2236 -0.7804 -0.8447
C -0.3783 -1.5036 1.1681
O 0.1437 0.6712 1.9675
C -0.4203 -0.1409 1.2404
C -0.0365 0.0566 -1.0703
N -0.7746 -2.3823 1.8205
H -0.9852 -0.4023 -1.1675
H 2.2830 -0.6956 -1.0223
H -1.7081 1.2609 0.4294
C 0.1308 1.5209 -1.4675
C -0.9235 1.2904 1.1926
H -0.3534 2.1790 0.9011
C 0.7554 -2.0362 -0.2248
H 0.0121 -2.5531 -0.8334
H 0.9006 2.1568 -1.8185
18

H 1.1601 -2.0633 0.2026
O 1.4159 0.6877 1.4342
H -2.7733 -3.4737 -0.8280
O 0.3088 -0.4870 -0.6190
H 0.0750 -1.2551 1.2739
C -0.9545 -2.7197 -1.2967
C 0.7436 1.4652 0.8425
N -0.9866 -2.2701 -0.1543
N -1.9577 -3.0633 -0.5795
H 0.4463 2.0191 -1.8704
C -0.1662 2.1457 -0.0011
C 0.2471 -1.4292 0.1984
O -0.3236 1.9791 -1.2595
H 2.3663 2.6705 1.4941
H -0.6515 -2.7662 -2.2700
H 0.7454 3.3675 1.6851
H -1.0119 2.6549 0.4070
C 1.3168 2.5378 1.3406
16

O -1.5095 1.5276 2.2003
H 1.5644 -2.7278 -2.8684
C 0.3686 -1.2825 -1.8903
H -0.1861 2.5484 3.1179
H -0.7268 -1.2979 -2.0516
C 0.1787 -0.2101 0.1888
C -0.3307 2.2413 2.0814
N 0.7312 -2.6327 -2.2757
H 0.7997 -0.4896 -2.5356
O 0.8435 1.5167 1.8015
H -0.7629 -0.7445 0.4135
H -0.3896 3.0823 1.4458
N 0.9758 -0.8678 -0.6253
H -2.2670 1.9248 1.8550
C 0.3118 0.8922 0.9338
H 0.3989 -3.4803 -1.7910
17

H 1.0797 -2.2143 -0.5182
C 0.8987 -1.6437 0.4331
C 1.2116 -0.2232 0.4260
H -0.3637 2.8944 -0.1672
H 1.9441 0.1766 1.1347
C -1.4187 -2.1522 1.2694
N 0.5655 0.4797 -0.5453
H -2.2925 -2.5505 1.7242
H -1.0606 -0.1731 -1.7008
H -1.6401 0.8991 -0.6109
C 0.1865 1.9113 -0.1939
N -0.5249 -1.6977 0.7085
H 0.1139 1.8649 0.9308
H 1.0811 2.3997 -0.6795
H 1.5669 -2.2071 1.1172
C -0.6988 0.7816 -1.2193
H -0.6486 1.4544 -2.1089
14

O 0.2979 -1.2332 1.1453
H 2.0943 -1.1993 -0.0662
C -1.4541 0.1088 1.4845
N 0.9943 0.3474 -1.9234
C 0.0485 0.3920 -1.0448
H -0.6429 0.7493 1.6638
H -1.9436 -0.2981 0.6513
N -0.4289 1.5062 -1.2541
N 0.0509 -0.6948 -0.0959
C 1.3670 -0.6220 0.4674
H 1.8305 0.2499 0.9308
H 0.8845 -0.6303 -2.1827
H -2.1193 0.1564 2.3034
H -0.9792 1.1677 -2.0794
21

C 0.1484 1.5127 0.4484
H 2.3194 1.0974 -2.0560
N -0.0937 -1.6554 -0.6944
C 1.5341 0.4049 -1.8938
C -0.8042 0.8414 -1.1944
H -1.5589 -1.3310 2.1832
C -1.3046 1.5282 0.1255
H -1.9502 2.3817 0.0291
C -0.2634 -0.2872 -0.3009
C 1.4626 -1.4456 1.1151
H 0.9017 2.1244 0.8597
C -1.7225 -0.3491 1.7890
H 1.5457 -2.4398 1.4934
C 0.6501 0.7499 -0.8407
C -0.8291 0.3777 0.9680
H -0.0708 -2.4032 -1.2221
H -1.2150 1.0358 -2.1453
H 2.2056 -0.6696 1.2119
C 0.3353 -1.2312 0.5206
H -2.5818 0.1572 2.1547
H 1.2914 -0.3993 -2.5510
14

O 1.4552 1.9818 0.5266
C -0.8001 -1.0314 -0.2365
C -0.2223 -0.1963 -1.2372
N 0.5607 0.8120 -0.8789
H -0.4388 -0.5730 -2.2047
H -1.2214 0.9474 1.5478
O -0.1232 -1.6977 0.7633
H 0.9594 0.1952 1.2433
O -0.6779 1.5054 0.9574
H 0.5973 -2.6159 -0.9316
C 0.5294 0.9612 0.5773
H -1.7892 -0.8574 0.0525
H 1.0958 2.7474 0.0978
N 0.0749 -2.1787 -0.2770
16

H -0.7806 -2.0583 -1.0254
C 0.9931 -0.2902 1.0078
C 0.7398 0.5087 -0.0122
H 2.5588 1.5206 -0.1010
N -0.1091 0.5821 1.2265
C 0.3503 -0.2341 -1.2091
O -2.7196 -0.5121 -0.8845
C -0.6860 -1.0137 -0.8180
C -1.7148 -0.1415 -0.2623
N -1.7091 0.5256 1.0679
H 2.9275 -0.2104 0.0563
H 1.3117 -1.1334 1.5195
O -1.5951 1.2686 -0.1260
C 2.1703 0.5262 0.0972
H 0.8866 0.0947 -2.0516
H -2.6238 0.5673 1.5148
17

O -0.0348 0.9151 1.2455
C 1.5406 0.5414 -1.6050
N 0.4066 -0.2104 -1.8373
N 0.7344 -0.1250 -0.5751
H -1.9631 -0.2618 -0.8165
H -0.1402 1.0100 2.1992
C 1.8197 -0.5183 0.3686
H 2.5132 0.0578 0.9615
H 2.2807 -1.4432 0.0447
C -2.2083 0.0594 0.1738
N 2.3219 1.3455 -1.9616
H -2.0952 -0.5245 1.4161
H -2.3502 1.1176 -0.0227
C 0.3898 -0.2932 0.8042
H -0.0397 -1.1588 1.2595
O -3.0061 -0.5622 0.9075
H -0.1694 0.0505 -2.5623
14

H 0.5820 0.8890 -0.0909
C 1.7296 1.6336 1.6078
H -0.0699 -1.4668 0.2301
N -0.8131 -1.3035 -0.3592
N 0.2572 4.0827 -0.0675
H 2.7014 1.9454 1.6531
O -0.7145 -3.5633 -1.7461
H -0.9589 -1.8218 -2.0770
O 0.6733 1.0866 2.0395
H -1.5595 -0.7042 -0.2374
H -2.0654 -2.8440 -0.7583
C 0.7979 1.5456 0.6664
C -1.1254 -2.5111 -1.2400
C 0.5653 3.0317 0.3795
21

H 0.9711 1.1232 0.2306
H -1.1511 2.2390 -1.5849
C 0.3837 -1.1069 2.0918
O 2.6882 0.2426 -0.0575
H 2.7272 -1.2246 -1.3933
C 0.5072 -0.9753 0.5775
H -2.6207 1.1428 -1.8625
C 1.3860 0.1411 -0.0650
H -0.9846 0.5479 -2.0442
H -2.7560 1.3456 0.1660
C -1.6023 1.2386 -1.4474
H 0.9013 -1.9270 0.2086
H -1.3930 1.4493 0.9990
C -1.7061 0.9754 0.0489
C -0.8184 -0.3196 0.1937
H -1.3951 -1.2084 -0.0137
H 0.9899 -0.3327 2.5610
H 0.7164 -2.0807 2.4335
H 1.7043 0.0502 -2.1919
C 2.1060 -0.3421 -1.2542
H -0.6539 -0.9783 2.4044
15

O -1.9688 0.3808 -0.1500
H -1.7425 -1.2087 -1.3912
N 2.1473 1.2908 -0.7979
O 0.6344 2.5321 0.6164
C 1.1518 1.6423 0.0090
C -0.2282 -1.0952 1.4823
H 1.9323 1.4458 -1.7355
C 0.8577 0.5173 -0.4030
H -0.0040 -2.0852 1.3374
H 0.3538 -0.5910 2.1603
H 0.7927 -1.0763 -1.6318
H -1.7596 -0.2860 1.5967
C -1.2419 -0.4337 0.6870
C 0.2494 -0.4385 -1.0216
C -1.1745 -0.5947 -0.7582
21

N 0.7466 3.2951 1.6151
H -0.8732 0.8624 2.1466
H -0.9380 -0.0755 -2.0291
C 0.9489 -1.6088 0.0582
H -2.1573 -0.7967 1.0826
C -1.9235 -0.7713 -0.0223
C 0.6367 -0.3789 -0.5297
N 1.5664 -0.3329 -1.5751
H 1.6159 -1.8068 0.8717
H 2.2631 -0.1285 -2.2696
C -1.4095 0.7694 0.0280
H -2.8635 -0.7015 -0.6563
H 0.6101 -2.4835 -0.4884
C 0.0987 2.4085 1.3488
C -0.8167 -0.1940 -0.9450
C -0.7215 1.3510 1.1848
C 1.9574 0.1661 -0.1807
H -2.1550 1.4771 -0.3651
H -1.7354 -1.8786 -0.0116
H 2.2239 0.9792 0.4976
H 2.9259 -0.1518 0.2397
21

H 0.0775 0.7707 -2.0269
H -2.0532 0.0882 1.7619
C -1.5603 -0.8883 1.5495
O 2.3523 -1.2341 0.5678
C 0.7757 1.5871 -1.6814
H -2.2641 -1.0304 -0.4157
H 0.5050 -0.9181 2.0558
C 0.0748 -0.1730 0.0204
H -0.8338 -1.8590 -0.5919
H 1.4531 1.9437 -0.8373
C -1.2494 -1.0398 0.0419
C -0.6449 1.0405 0.2509
C 1.5387 -0.4995 -0.1860
H -0.6700 1.7119 1.0950
H 2.0857 -0.1356 -1.0597
H 0.0736 2.4222 -1.7204
H 1.5264 1.4884 -2.4646
H -1.4345 1.2402 -0.4471
H 2.9238 -1.7074 -0.1053
O -0.3947 -1.1711 2.2970
H -2.2819 -1.6367 1.8962
23

H -2.7699 -0.4371 -1.8402
C 2.4845 1.2920 1.0214
C 1.9080 0.1648 0.3703
C -1.9523 -0.9508 0.6376
H -3.4880 0.1018 -0.3926
H -1.8976 -0.1092 1.3162
H -2.2119 -1.8582 1.1842
H 1.2081 -0.5123 2.3720
H 2.3523 -0.2192 -0.5198
N 1.1874 -0.7610 1.3796
H -0.9972 -1.8975 -1.2208
H 2.1424 2.2893 0.8719
H 0.8737 0.0576 -2.1680
H 1.3379 -1.6914 0.9684
C -1.2492 -1.0473 -0.6186
H 0.5585 1.7173 -1.4956
C -2.6169 -0.4581 -0.7267
H 0.1121 1.3089 1.0857
C 0.4654 0.3692 0.6721
C -0.2345 -0.0033 -0.5119
H -0.6317 0.8903 -2.3912
H 3.2641 1.0213 1.6907
C 0.1548 0.7329 -1.6847
19

H 2.5285 1.4898 -0.8754
H -2.4609 0.9499 -0.5368
H 1.9548 -0.1212 -1.5718
H -0.5384 -0.7447 -1.5264
C -0.0351 0.2470 0.1867
O -0.5833 1.4599 -0.3194
H 1.5315 -2.2341 -0.8840
O -0.5708 -2.4043 -0.1890
N 0.6583 -2.1788 -0.4678
C 1.4202 0.2605 0.5418
H -1.4757 1.9840 1.1231
H 1.5619 1.0861 1.2465
C 1.9146 0.6006 -0.7750
C -1.9132 1.2258 0.4015
H -2.8346 1.2279 1.0384
C -0.2892 -1.0470 -0.4901
H 1.9712 -0.5869 0.9743
C -1.2519 -0.3736 0.6203
H -1.5879 -0.8407 1.5031
21

O -2.0264 -0.2049 -1.1612
H 1.0403 -1.3906 2.2945
C 1.9444 0.4830 0.2914
H -0.3567 -2.4173 1.7190
H 1.6294 -1.5396 -0.1086
C -0.8240 0.3484 -0.8448
C 0.3408 -0.4864 -1.4858
C 0.0974 -1.4500 1.7983
C 1.3479 -0.5322 -0.3757
H -1.6151 2.7277 -0.8118
C -1.4758 -0.6439 0.0983
C -0.7784 1.8868 -0.7771
H -0.0322 -1.4871 -1.7175
H 2.7490 1.0247 -0.1608
H 1.8427 0.6368 1.3567
H -0.6854 0.4821 1.7751
O -1.2491 2.3483 0.3003
C -0.6521 -0.4776 1.3002
H 0.0495 2.2336 -1.3564
H -2.0421 -1.5609 0.2449
H 0.6958 0.0191 -2.3790
17

H -1.1041 2.5116 -1.0136
H 0.1018 0.9062 -1.4924
C -0.6223 1.5661 -1.0393
C 1.5094 -0.4435 0.6505
N 0.7020 -1.6772 0.3507
H -1.5198 0.9560 -1.0199
C 0.4863 -0.7865 1.5670
H 1.1165 1.3597 2.1498
H 0.3796 1.9924 -0.8115
O 0.4104 1.6253 1.5256
H 2.5140 -0.4630 0.3170
C -1.1973 -1.6946 -1.1917
O -1.7160 -2.7916 -1.0433
C 0.4480 0.4827 0.9614
H 0.2046 -1.0710 2.5179
C -0.2846 -1.3146 -0.3101
H -1.4285 -1.1580 -2.1181
17

H -1.8602 -1.0620 -1.4107
O 0.0876 -0.5230 -1.7141
C 1.1943 1.5064 -0.8694
H 1.9570 1.2354 -1.5701
C -0.0460 -0.7682 -0.3290
N -1.1546 -0.4240 -1.2048
C -1.1306 -0.1838 0.7036
H -1.3093 -1.0441 1.3436
H 2.3275 -0.2207 1.6637
H 1.2562 -2.4828 0.4131
C 0.9780 -1.4633 0.3580
N -0.2134 0.8711 0.4794
C 1.6738 -0.3883 0.8461
C -2.3228 0.6251 0.9017
H 0.6369 2.3625 -1.1252
N -3.1777 1.2188 1.3138
C 1.1032 0.7409 0.2003
16

H 0.5071 -2.2572 1.9121
O -0.7825 1.2454 0.4492
N -1.2204 -0.5242 -1.3101
H -0.9093 -1.7541 0.9740
H -0.9301 1.4535 -1.6082
C 0.9300 0.6480 -0.5792
O 0.5301 -0.2511 1.2860
H 0.6568 1.8505 1.8907
C -0.6398 0.6668 -0.8907
H -2.2051 -0.7611 -1.2573
H -0.8177 -1.1325 -2.0322
O 1.9293 0.9815 0.4283
C 0.6078 1.2149 0.9911
C 0.1314 -1.5601 1.1883
O 0.8710 -0.8732 0.0825
H 1.3415 1.0529 -1.5246
19

O -0.5791 -1.4975 -1.8692
H -2.2044 -0.6584 -0.9243
C 0.8463 0.5453 -0.0134
C -0.2678 -0.3973 0.1793
C 0.4502 -0.9411 1.4793
C -0.8023 1.5383 -1.9556
N 0.3510 -1.2974 2.7904
C 0.4891 0.6395 1.5238
H -0.2345 2.4770 -2.0455
H -0.7204 1.0344 -2.9350
H -0.4713 1.0630 1.8749
H 1.0313 -2.0322 -0.1062
H 1.8781 0.6064 -0.3298
N -0.3642 0.7208 -0.8522
H 1.3178 1.1547 2.0431
H -1.8715 1.7441 -1.7604
N 1.2792 -1.9758 0.8812
H 0.9565 -2.0440 3.0477
C -1.0841 -0.6796 -1.0282
10

O -0.3668 -0.1508 1.9435
N -0.6320 -1.5496 -3.0638
H -0.4082 1.8790 2.1413
C 0.8212 0.1948 -0.1058
H 1.7329 -0.3133 -0.3491
C -0.0943 0.9773 1.6866
C -0.2555 -0.3619 -0.7367
O -1.1879 -0.6116 -0.1440
C -0.5376 -1.1350 -2.2812
N 0.9281 1.0711 0.9091
19

C 1.3892 0.8946 -0.6713
H -0.6840 2.3757 -0.5329
C 0.6888 1.4653 0.5497
O 0.4546 0.0641 -2.8016
H 0.9034 -1.7106 -0.3663
H -1.9826 -2.3616 -0.3253
C -0.6432 1.3722 -0.0733
H -1.1268 -1.5627 1.7746
C 0.6573 -1.1287 0.5125
C -0.7342 -1.1331 0.8672
C 0.8525 0.4313 -1.7699
H -1.4822 0.9643 -0.6024
H 1.5602 -1.0596 1.0647
H 2.3693 0.6233 -0.3628
H -1.3774 -1.0042 -1.3270
C -0.2302 0.3249 1.0747
H -0.4700 0.6337 2.0917
O 1.3106 2.2699 1.2823
C -1.4553 -1.4589 -0.3846
20

H 2.6018 1.2324 -0.0193
O 2.0225 1.9543 0.2315
H -1.0040 2.4635 -0.5465
C -0.0822 1.9573 -0.7103
C -0.3300 -0.5901 1.1632
H 0.8234 -0.5122 -1.8356
N -0.6361 -3.0930 -1.6140
H 0.3732 1.8379 -1.6584
C 0.6388 1.4938 0.4334
C 0.7412 0.0258 0.2707
C 0.4668 -0.9086 -0.8898
H -2.1686 0.4634 0.7038
H -1.8020 -0.4299 -0.6771
C 0.8809 -1.3721 0.5275
C -1.6757 -0.4601 0.4066
H 1.7102 -1.9203 0.9175
C -0.2233 -2.1570 -1.1369
H -0.3535 -0.5032 2.2363
H 0.2643 1.8111 1.4140
H -2.2477 -1.2927 0.7836
19

H 0.7413 0.0098 2.2511
C -1.5914 -1.5908 0.4160
H -0.3438 -0.4754 -2.0848
O 1.3781 1.8826 0.2612
C -1.1632 -0.1750 0.6671
O 1.0414 -0.0746 -1.0723
H 2.6540 1.0621 -1.0409
H -1.2367 -1.3192 2.5948
H -0.7473 0.8992 -2.5383
C 0.0240 0.2367 1.4489
C 0.1328 0.5168 -1.9799
H 2.4034 0.0714 0.3543
N 0.3065 1.5148 1.0596
H 0.5921 1.5093 -2.0902
C 1.8949 0.7456 -0.3364
H -1.7116 0.5949 0.1488
H -1.0280 -2.0530 -0.3920
H -2.4406 -2.2217 0.6692
N -0.9059 -1.1338 1.6638
19

H 1.7440 0.3414 -0.3542
H -0.1614 -0.8382 3.5016
N -1.1044 -0.4913 -2.5759
H 2.1212 -1.0457 -2.3786
H -1.9563 0.6495 3.5209
N -0.1006 0.3010 -0.6018
C -0.0189 -0.3193 -1.9357
H 0.8587 -1.5170 -3.4140
C -0.2487 1.0515 1.9467
C 1.1753 -0.6482 -2.7814
O -1.5804 1.1701 1.4654
H 0.3264 1.9441 1.8413
N 0.9367 0.8611 -0.0611
H -0.9709 -0.0921 -0.1745
C -0.0950 -0.3036 2.5624
C -1.3269 0.5713 2.6777
H 1.3636 0.3593 -3.2396
H -1.5968 -1.1717 -1.9741
H 0.6345 -0.8222 1.9749
17

H 0.7186 1.5806 -1.6316
H -2.3583 -0.9562 0.8459
H 0.1831 -1.4564 1.2800
C 1.0772 0.5920 -1.3224
C -0.7750 0.8375 0.0876
N 0.0743 -0.6996 -0.9196
H -1.3179 1.6485 -0.3584
C 0.5567 0.9207 0.5919
H 0.1700 -1.3980 -1.6675
H 2.6720 0.2298 0.3825
H -0.8757 -2.2552 0.2070
H 1.7815 0.2784 -2.1035
H 0.6136 1.2870 1.6007
C 1.7102 0.4423 -0.0232
C -0.3804 -1.2863 0.3358
O -2.3247 0.4108 1.7517
C -1.5251 -0.1759 0.9431
18

O 0.3997 0.2188 -2.5377
H 0.9723 2.5517 3.2860
H 0.9739 -1.5052 0.5700
C 0.1560 1.9574 3.0051
H 2.0076 -1.6853 -1.8550
C -0.7713 -0.2386 -1.9480
N 1.0764 -1.7129 -1.4954
H 1.4030 0.3597 -0.8485
H -1.8715 0.3535 0.1023
H -0.5970 -1.8452 -0.0144
H -0.7123 2.1624 3.5518
H -1.3109 -1.1484 -2.1106
C 0.6376 -0.3074 -1.2805
H -1.4678 0.5474 -2.0979
N -0.9911 0.1764 0.4134
C 0.3074 -1.3132 -0.2372
N 0.1420 0.9019 2.2261
C -0.3538 0.5271 1.2707
14

O -3.1754 0.4188 1.2567
H 1.9424 -0.0689 0.4035
N -1.0757 1.2232 0.8420
N -0.0868 1.4698 0.3163
N 0.6970 0.2098 -1.1804
H -1.1481 -0.3390 -0.5305
C -2.1256 0.8512 1.6510
H 3.3697 -2.5312 -2.7961
C 1.6928 -0.3472 -0.6063
H -3.3908 1.1110 2.0516
H -1.6278 0.6902 2.5380
C 2.3706 -1.1510 -1.5013
C -0.4064 0.3616 -0.2911
N 2.9639 -1.8981 -2.1535
19

C 0.6400 0.3148 -2.2057
C 0.6409 1.4505 -1.5290
H 1.1449 0.3813 1.6251
H -1.3936 -1.3405 0.9238
C 0.5254 0.2234 -0.4798
C -1.6390 -0.4632 0.3468
H -1.8944 -0.0351 2.5207
O -0.3821 -0.9218 2.7712
H -2.6839 -0.2777 0.4426
H -1.3400 -0.7471 -2.1162
N 1.9502 0.0913 -0.3412
N -0.8983 0.0648 2.7766
C 1.0558 -0.2680 0.7571
H 1.0328 -1.3022 1.0463
N -1.0092 0.4710 -0.3753
H 2.8746 0.0637 -0.0368
H 1.2303 -0.0539 -3.0238
C -0.6139 -0.1652 -1.5829
H 0.7593 2.5139 -1.5193
19

H 1.2603 -2.2413 -0.1137
H -1.9504 0.6770 1.9258
H -0.7828 -2.2707 -0.9447
O -0.4144 -1.2979 1.0246
H 2.9899 0.8206 -0.0199
H 0.8519 1.3787 1.7799
C 0.6205 -1.4014 0.1547
O -1.8652 0.5773 0.9750
H -1.5487 0.4209 -1.6475
N 1.4981 -0.3135 0.5010
C -0.6624 0.1133 -1.0900
C 0.7140 0.8126 0.8657
H -0.8382 2.0076 0.0248
H 1.6246 1.5933 -0.9066
H 0.1247 -0.0094 -1.8496
C 1.8999 0.8678 -0.1441
H -1.9828 -1.3733 -0.3730
C -0.6752 0.9361 0.2390
C -0.8636 -1.2978 -0.4015
16

C 0.0269 0.3972 0.2782
N 1.1132 -1.1791 -0.8361
H -2.4142 -1.1360 2.4399
O 2.6507 1.3397 -3.1297
C -2.9002 -0.3686 1.8522
O 0.9153 -0.0310 -2.9241
N -1.8610 0.5589 1.5590
H 0.4662 1.3214 -0.0706
N -1.2203 0.6692 0.6750
H -3.4261 -0.8645 1.0562
C 1.9931 0.4990 -2.5199
C 1.9486 -0.2416 -1.2262
H 2.6868 -0.3270 0.4811
O 3.0554 -0.1392 -0.4215
N 0.5492 -0.7632 0.3781
H -3.5837 0.2648 2.4085
19

C 1.1161 0.0090 -0.1516
O -1.9088 -0.5273 1.7029
H 0.4123 1.4180 2.6626
H -1.3537 0.4325 -1.6406
C -2.0059 0.3881 -0.8139
C 0.8383 -0.3740 1.2235
C -1.6611 -0.0539 0.5032
H 1.8645 0.7820 -0.1528
H 2.3128 -1.2292 1.4563
O -1.4810 1.3185 0.3439
N 0.4602 0.7126 1.9867
C -0.1953 0.4460 0.6516
H -2.7856 -0.8625 1.4515
H 0.8262 -0.4378 -2.8325
H -3.0422 0.3166 -1.0867
N 1.5808 -0.0541 -3.3639
H 2.2789 0.0493 -2.6457
O 1.3779 -1.5701 1.5510
H 1.3655 -0.7638 -0.8453
15

H 2.2536 -0.8434 -1.3149
H 1.5993 1.6514 0.1737
O 1.1677 0.6981 -1.4177
C 1.2740 0.7509 -0.2162
N -1.3189 -3.0780 0.2604
H -1.2866 0.7970 -1.4966
N 2.1302 0.0397 -1.6578
H 1.0555 -0.2328 1.8638
C -0.4661 -0.8000 0.1873
C -1.1417 0.3740 -0.5729
C -0.9538 -2.0535 0.3176
O -2.1875 1.5183 1.5717
C 0.6266 -0.0975 0.9236
C -0.7379 0.3762 0.7424
N -2.0143 0.8998 0.6355
17

H 0.6902 -1.0700 1.5113
H -2.9956 0.9440 0.9036
H 2.0944 -0.1262 0.9400
C -1.9784 1.3089 0.9655
H 0.7844 0.5950 1.9572
H 0.5714 1.3920 -0.4182
H -1.8966 2.2008 0.3675
C 0.2761 0.3945 -0.0344
H 1.9649 -1.9555 -1.2283
C 1.0493 -0.1061 1.1727
H 0.7964 -2.1318 -2.6169
N 1.2123 -1.8286 -1.8120
C 0.4603 -0.5905 -1.3098
N -0.6010 -0.8522 -0.5070
N -1.1022 0.2920 0.2989
H -1.7462 1.5081 2.0139
H 0.4202 0.0255 -2.2037
17

N 1.3189 3.4964 -0.2887
H -1.0582 -2.7696 -1.4144
C -0.3595 1.6868 -0.4660
N -1.7555 -1.7961 0.9293
N -0.0677 -3.0117 -1.1858
H -2.0586 -2.2190 1.8030
H 0.0632 -2.6276 1.8283
C 0.2552 -2.2417 -0.1852
H 1.2470 -1.8049 -0.1347
O 1.5478 4.4678 0.1066
H -0.4030 3.3159 0.8413
C -0.5394 -2.2183 1.0164
O 1.3484 0.5474 0.3271
C 0.6932 0.6849 -0.6918
H -1.3836 1.4683 -0.7443
C 0.1619 2.8462 0.0455
O 0.9898 0.1753 -1.7863
22

H 1.8184 -3.2796 1.3028
C -0.3166 2.1167 -0.3444
O -0.0357 -2.4648 1.5021
N 0.3490 2.1833 1.0353
H -1.8701 0.5332 -1.8482
H 1.0239 -2.8032 -1.4694
C 0.0304 -1.0828 0.9482
C -0.3307 0.6486 -0.6919
C 0.9830 -2.9442 0.7664
H -1.5819 1.8267 1.7175
H -0.7253 3.0053 -0.7518
C -0.7845 1.7702 1.0348
N -1.1349 -0.0395 -1.4722
C -0.9766 -0.7223 -0.1038
H 1.7748 1.4989 -0.9599
H 0.6670 1.6000 -2.3425
C 0.9595 -2.9064 -0.4552
O -1.1163 -0.7429 1.4431
H 1.2772 2.3792 1.1967
H -1.7395 -1.4785 -0.2638
C 0.7575 1.4872 -1.2791
H 0.9712 -0.5851 1.0352
15

H -0.8178 -0.1094 -2.2507
H 2.1132 -1.5053 0.1313
C -0.0938 -0.1727 1.5575
O 1.6907 1.0942 -1.3065
C 0.8319 0.7006 -0.5905
C 0.8192 -0.2508 0.5483
H -2.1739 0.8925 -1.7914
H -1.0223 -0.3464 1.9762
H 1.5302 -0.3314 2.6064
O 1.1825 -1.4255 -0.0726
H -1.5788 -0.6696 -0.7355
N 1.0798 0.2226 1.9344
N -0.4557 1.0935 -0.5156
N -1.7725 0.4991 -0.0943
C -1.3329 0.3087 -1.3969
10

C -0.7006 0.2038 -0.4337
H 3.0037 0.5832 1.1523
C 2.1821 0.2702 0.8742
O -1.2888 2.5453 -0.4125
H -1.8782 -1.3004 0.5897
H 1.3894 -0.0380 0.7435
C -0.9965 1.5544 -0.4630
C -1.2537 -0.8015 0.0183
N -0.3911 -1.1097 -0.8933
H -0.0663 -1.9072 -1.1755
15

N -0.1756 0.9942 -0.3263
O -2.1630 1.5304 -0.9942
H -0.3560 -1.8346 -2.8108
H 1.1798 1.7826 0.9000
H 0.3398 -1.8001 -1.1146
C -0.1983 -1.2389 -1.8873
N -1.3285 -0.6655 -1.2907
H -0.4627 1.9794 1.4604
H 0.2741 0.0077 2.7607
O 2.0040 -0.1710 1.8973
C 0.9173 -0.5750 2.1027
C 0.1763 1.5043 0.7454
H 0.6904 -1.6237 2.0019
C -1.2967 0.6837 -0.9040
H 0.3992 -0.5732 -2.5406
18

H -1.7479 -1.9363 -0.4887
C 0.4519 0.3014 0.8312
H -0.9451 -2.7247 2.1868
C 1.1435 2.0287 -0.9410
H 1.2896 -0.0742 1.3592
C 0.8039 0.9186 -1.6627
C -1.3142 -1.9378 1.5726
H -1.5173 0.3755 -0.3980
N -1.7753 -2.1662 0.4320
H 0.9054 3.0015 -0.6020
H -1.2789 -1.0103 2.0805
H 0.6557 -1.5128 -0.6948
H 0.1148 1.0791 1.4785
H 2.0740 1.8588 -0.4416
H 1.3111 0.3354 -2.3588
O -0.0887 1.8151 -1.7579
C -0.5481 0.1948 -0.1842
C 0.4655 -0.5467 -0.4111
20

H -0.9773 -1.2927 -1.0184
H -1.3464 0.5153 2.4094
H 0.2884 1.0796 2.0122
C 1.4247 0.6057 -2.2499
O -1.2083 -1.8980 2.6994
H 2.4798 0.4473 -2.5924
H 0.6165 -0.9539 -0.1902
H -2.0202 0.5411 0.0800
N -0.4636 -1.8796 1.8129
H 1.3383 -0.5473 -2.2021
H 0.4551 -1.4343 1.9432
H -0.4571 -2.6413 1.1189
C -0.7506 1.0598 1.6944
H 1.3897 0.8516 -1.1600
C -0.3882 -0.6468 -0.3959
H 1.6991 1.6355 -2.6842
C -0.9402 0.5338 0.2384
H -0.5460 1.2616 -0.4350
H -1.0185 2.0966 1.6877
H 0.4248 0.6660 -2.7685
19

H 2.1154 0.2297 2.6563
H 2.4721 -0.5059 -0.1388
C 1.7915 -0.6398 0.6217
H -2.1103 -0.1620 -1.3389
O 1.3820 -1.6187 1.8788
H -1.1061 0.5939 1.1841
C 1.8457 -0.4061 1.9254
H 0.5826 0.5412 -1.2907
O -0.0564 1.9881 0.1259
H 1.0518 -3.1254 -0.1452
C -0.2307 1.1900 -1.0596
H 0.0182 -2.0362 -1.1371
N -3.0268 1.4516 -0.5304
H -2.8919 2.4155 -0.6860
C -0.8969 0.9258 0.2129
C 0.7127 -1.3444 0.7037
C -1.8916 0.7646 -0.8433
C 0.6284 -2.1741 -0.2915
H -0.3899 1.9123 -1.8474
22

H 1.1879 0.8151 -1.4318
C 0.7855 -1.4819 -1.4643
C -0.4081 0.3343 -0.2083
C -1.1067 -0.4308 0.7008
C -0.2696 1.0800 1.0003
H 1.6619 -1.4121 0.8470
C 1.3273 -0.4344 0.5322
H -0.5716 -1.2757 -3.1973
H 0.7153 2.5000 2.0574
O 0.9608 0.4948 1.6014
O 2.0833 0.6373 0.8652
H 1.7481 -1.5149 -1.9924
H -2.0803 2.0242 1.8970
H -0.9873 -2.6523 -1.9762
H 0.8892 -2.3745 -0.7748
C -0.3733 -1.7922 -2.2512
C 0.7827 -0.0384 -0.8708
C -1.3183 2.0920 1.1242
N -0.1046 2.6459 1.5126
H -1.7442 -0.2773 1.5637
H -1.4227 -1.4068 0.2824
H -1.7553 2.4675 0.1832
19

C 0.5356 -0.3763 -0.9685
C 0.5529 -0.2414 1.4961
H -0.1971 -0.1401 2.3009
O -0.5696 2.1484 -0.6939
O 0.7451 1.1191 1.0234
N -1.4743 -1.2612 0.5439
H 1.9848 1.4509 -1.7896
C -0.0041 -1.0809 0.2773
H 1.9565 0.9456 -2.2786
H 0.4496 -2.0760 0.2666
H 0.4337 -0.7674 -1.9915
C -0.5481 1.3652 0.4418
H 1.6401 -0.4028 -0.7910
H -1.5029 0.4430 -1.4678
H 1.4487 -0.6809 1.9390
H -2.2468 -1.1389 -0.0580
H -1.2621 1.7097 1.2021
H -1.3279 -1.7326 1.4324
C -0.6140 0.7165 -0.8847
21

C 0.5458 1.0797 -1.0808
H -0.0630 0.8486 -3.1517
H 1.5889 1.2754 -1.3892
C 1.7687 -0.5507 0.6539
C 0.0340 -1.3883 1.9230
H -0.9198 2.2066 -2.2763
H 1.0417 1.5334 0.9460
H -1.1475 0.7309 1.2285
H -2.1420 -0.9247 -0.5930
H -2.8800 0.7767 -0.3425
H -0.9286 -1.8766 1.8123
H 2.5063 -0.2739 1.4199
H 0.2100 -0.5228 2.5630
C 1.1385 -1.9210 1.3260
H 2.2731 -0.8513 -0.2822
C -0.7811 0.5107 0.2035
C -2.0239 0.1671 -0.6796
C -0.2179 1.3770 -2.2216
O 1.4199 -3.1194 1.3590
H -2.1457 0.2895 -1.7614
C 0.7225 0.6331 0.3432
23

C 1.4891 -0.6449 -0.6114
N 1.5944 2.1042 0.7820
C 2.2842 1.0174 1.0961
H -1.4212 -1.2232 -0.8346
H 1.3005 1.1677 -2.1772
H -0.4149 0.6177 -2.2449
H -3.9662 -1.7875 0.8757
O 3.1032 0.1029 1.4915
C -2.0954 -1.6434 -0.1288
H -2.1413 1.3929 0.7752
N -0.1846 0.2875 0.7858
C 0.5272 0.6082 -1.6871
C 0.4235 0.1813 -0.3964
H 1.4257 -1.5116 0.0553
C -3.3861 -1.3177 0.0642
H 2.4277 -0.5794 -1.0709
O 2.9637 1.4284 0.3829
H 3.3754 -0.7279 1.4758
H -2.2221 1.0558 0.1307
H -3.8238 -0.5886 -0.6063
H 1.2813 2.5045 -0.0533
H -0.8515 0.0318 1.4583
H -1.6887 -2.4761 0.4374
12

H 0.6791 -0.8795 1.3525
H 1.1490 1.3728 -0.2469
C -0.7110 0.5582 0.2624
H 0.9123 -1.1719 -1.8982
C -0.2369 -1.6501 -0.3646
H -1.6963 0.5791 -0.1327
H -0.0180 2.6761 0.2500
N 0.7182 -1.1163 -0.9227
O -0.3321 1.0575 1.4795
H -0.9431 -2.4085 -0.4340
C 0.2648 -0.6618 0.4011
C 0.2139 1.6444 0.2537
18

O -0.7365 -2.4414 1.2506
N 0.3037 0.7938 -2.1184
H 1.2165 -1.6861 -1.4173
H 0.4245 2.1643 1.5638
C 1.3353 0.2881 0.9422
H -2.5082 -0.0997 -0.1935
H 1.8759 -0.5741 1.2829
C 0.4505 -1.4628 -0.7165
N -2.0909 -0.8397 -0.7644
H -0.4625 0.8948 2.4772
C -0.2658 -1.7821 0.3815
C -0.2489 0.8804 -0.9222
H -0.7614 1.8394 -0.8069
H -0.0508 0.3520 -2.9162
H 2.0486 0.9252 0.4213
C 0.0022 0.2675 0.4150
C -0.7532 -0.6209 -0.5432
C 0.2210 1.1014 1.6641
18

H -3.0026 0.7191 -0.3394
C 0.6505 -0.8270 0.1244
C 1.8718 -0.7299 -0.4533
H -0.8418 2.2294 -0.5327
C -0.6857 1.1457 -0.6856
C -1.9559 0.4772 -0.3546
H 2.3326 -0.8156 -1.4294
O 1.3047 -2.0673 0.0646
C 0.0757 1.0791 1.3779
H -0.4802 1.3834 2.2433
H 0.5176 -2.6673 0.1128
C -0.9381 -0.4088 -0.7443
H -0.9380 -1.1692 -1.4910
H 0.9860 1.6160 1.1989
H 2.5440 -0.1329 0.1603
H 0.0484 1.1594 -1.4967
H -1.0441 -0.7933 1.4597
C -0.4446 -0.1979 0.7851
11

C -0.3141 -0.7112 1.0657
N -2.6015 -0.2558 1.0974
N -0.0026 0.3811 -1.4711
O 1.0259 -0.7576 0.4522
H 1.7314 1.1516 -0.7407
C -1.5434 -0.4649 0.8581
C 1.0772 0.3721 -0.4666
N -0.4068 1.2421 -1.8732
H -0.3134 -0.5230 -1.8403
H -0.1648 -0.8531 2.0803
N 1.5119 0.4187 0.8384
20

O 1.0215 -0.9973 1.0231
H 2.2999 0.6739 -0.8424
C -0.9515 -0.0068 1.2855
C 1.3999 0.1761 -1.0329
H -0.9511 -0.2706 2.3103
H 0.8109 0.4755 -1.8506
O -1.5942 0.9224 0.6954
C 0.5212 2.1984 0.5090
C 1.0288 -1.0468 -0.3164
H 0.8609 2.6502 -0.4317
C -0.3717 -0.8856 0.2433
N -1.3643 -1.9744 0.1655
H 1.1847 1.4570 0.9491
O -0.8118 1.9307 0.2549
C -0.9904 -1.3785 -1.0810
H 0.6173 2.9442 1.2891
H -1.7453 -0.7237 -1.5238
H 1.5807 -1.9351 -0.6091
H -2.0233 -2.2625 0.8494
H -0.5220 -1.9470 -1.8866
13

H -2.0635 -0.7781 -0.2711
C -0.0704 -1.1064 0.6511
N 0.4559 1.6804 1.0397
H -0.4409 -1.8620 1.3362
C 0.8856 0.3897 0.9363
C 0.2627 1.4657 -0.2343
N -0.0900 -0.3500 -1.4786
O 1.1477 -0.8842 0.4150
O -0.9418 -1.2578 -1.9305
H 1.4322 0.3709 1.8944
C -1.0270 -0.8561 -0.5753
H -0.2168 2.4764 -0.4359
N 0.6663 0.7117 -1.3470
21

C -0.0476 -0.5371 1.7421
H 0.1585 -1.1167 2.6294
H 1.2492 1.9183 -1.4499
C -1.0571 -0.0387 -1.7845
C -0.7190 0.5899 0.7930
H 0.6759 1.2454 2.5040
C 0.3749 -1.1121 0.3479
H -0.3457 0.1054 -2.5850
C -0.6164 -0.3335 -0.4412
H -1.6232 0.9048 -1.7678
H -1.4924 1.3304 0.9004
H 1.2713 -1.5524 0.0192
H 2.6043 0.8364 -1.0274
H 1.6229 0.8761 1.1044
H 2.2084 1.0346 -2.7062
H -1.9965 -2.4803 1.9007
C 1.9735 1.2508 -1.7376
C -1.0967 -1.0623 0.7483
H -1.7315 -0.8560 -2.0402
O -2.0517 -1.7640 1.3123
C 0.6391 0.7611 1.5380
17

H 0.0566 -1.2621 -1.5594
C -1.0870 1.3301 -0.3389
C 1.2510 -0.2421 -0.0973
H 1.7960 -0.3998 0.8442
O 3.3678 -1.2825 -1.2181
H 1.7697 0.5787 -0.6100
C -0.3776 0.3365 0.6326
H 2.8186 -1.3085 -1.8844
O -2.6726 0.0823 1.1171
O -0.1722 -0.0025 1.8155
H -2.0123 1.6311 -0.8441
H -0.2804 1.9644 -0.7041
C -1.6622 1.0017 0.9744
H -1.8901 1.9187 1.5486
C 0.8051 -1.3711 -0.7913
H -2.7797 -0.5530 1.8318
H 1.0694 -2.4220 -0.7167
16

H -0.7345 -1.6839 2.0739
O 1.7746 1.9329 -0.6712
O -1.9074 -0.5163 0.5537
H 0.2698 1.2122 1.0720
C -1.0244 0.0363 -0.3068
H -0.3882 1.3757 -1.9989
O -1.6585 1.8277 -0.3466
H 1.1614 2.4953 -0.4024
C 1.0097 -0.8191 0.1562
C -0.9027 -1.4360 1.0361
H -0.3948 -2.6605 -0.6310
C 0.2536 0.5727 0.1838
H 1.5930 -0.8002 -0.7645
C -0.1408 -1.8081 0.0070
C -0.6359 1.2520 -0.9342
H 1.7251 -0.9806 0.9729
19

H -2.9501 0.9150 0.2061
N 0.3081 1.7334 -0.4972
H -0.5683 -1.6178 -0.0184
C 0.0585 -1.0923 -0.7411
C 0.3884 0.8674 0.8007
H 2.4427 -2.4060 1.7417
H -2.5386 -0.3311 -0.9948
C -0.0796 0.4190 -1.3545
N -1.1308 1.0573 -0.5933
H 2.3561 0.5228 1.4145
C 1.6155 -0.1900 1.0204
C -2.1806 0.1991 -0.1012
C 0.8865 -0.0185 -0.2341
H -0.0461 1.2621 1.6831
H 1.2761 2.0594 -0.5203
H 0.3645 -1.8042 -1.4908
H -0.0091 0.4628 -2.4289
H -2.1949 -0.5485 0.7046
C 2.0016 -1.4898 1.4034
19

O -0.4226 0.2619 -2.6178
C 1.2176 1.3992 0.6120
C -1.9893 0.1701 -0.4723
C -0.4459 -1.5928 -1.0047
H 0.5652 1.7323 1.4338
H -1.7789 0.8350 0.3206
O 0.9164 -0.7455 -0.7039
C -1.0401 -0.3694 -1.4809
H -0.2172 -0.2775 -3.3978
H -2.7676 -0.5079 -0.2276
N -1.5444 0.7445 -1.7741
C 1.3979 -0.4013 3.4649
H 2.2479 1.2799 0.9844
H -0.8268 -1.9971 -0.1000
H -0.1767 -2.2675 -1.7727
H 1.7679 -0.5968 4.3911
H 1.2067 2.1562 -0.1877
C 0.8957 0.2686 -0.0656
H 0.9940 -0.0918 2.5984
16

N 1.5454 -0.3182 0.8146
O 0.7939 -0.7377 -1.8791
H 2.2860 -0.0807 0.1409
H 1.6977 -0.6160 -2.1486
C 0.2492 0.4097 -1.3406
H 0.4640 1.2792 -1.9575
O -2.3812 1.1173 1.6824
N -1.7076 0.2143 1.7687
C -0.9737 0.7422 -0.4600
H -1.1523 1.8160 -0.2983
O 0.0284 -2.2360 0.5074
C -0.8392 -0.2795 0.8232
C 0.3785 0.1358 0.1487
H -1.8896 0.3282 -0.9233
H 1.8357 -0.2928 1.8120
N -0.3351 -1.4819 1.3092
17

O 2.1426 -0.1333 -0.6417
C -1.3882 1.5291 -0.2517
H 1.3001 -2.0366 0.7707
C -0.7777 0.1905 -0.4386
H -0.7591 -0.0556 -1.4725
O -1.7160 -1.7884 0.4451
C 1.8280 0.7068 0.2082
C -0.5038 -0.9910 0.4590
H 2.4348 -0.9894 -0.9024
H -1.6690 -1.8503 -0.5294
H -0.6620 2.2070 0.2788
H 1.3283 0.7376 1.1377
H -0.4294 -0.5314 1.4657
H 2.4219 1.5636 0.0732
H -1.5799 2.0698 -1.1995
N 0.4072 -2.0239 0.3606
H -2.3779 1.3957 0.2366
15

H 2.9391 1.3356 0.6374
C 2.2941 0.4909 0.7661
H -0.9608 -1.5678 -1.7378
C -1.1507 -0.7826 -1.0755
H 2.9321 -0.3189 0.4526
C -0.1354 0.0566 -0.6686
N -3.5929 1.2736 -0.8095
H -0.0012 -1.3737 1.0770
C -2.9504 0.3476 -0.6365
N -2.3398 -0.6804 -0.4854
C -0.1619 -0.3867 0.7558
C 1.0221 0.2451 -0.0115
H 1.9621 0.6120 1.7890
H -0.8128 0.1909 1.3656
O 0.9564 0.5580 -1.4186
19

C -1.4641 -0.1967 0.6895
C -0.6088 0.9049 1.5130
C 1.3701 0.3626 3.0453
H -1.1630 1.7210 1.7874
C 0.1559 -1.2421 -2.0202
N -0.5750 -1.2697 0.8048
H 0.3161 -0.3398 -3.8993
H 1.9792 0.4345 3.8766
H 0.3823 -2.1109 -1.5252
H -1.4420 0.1428 -2.2842
H -0.1360 -2.1372 0.7072
C 0.7417 1.1236 0.0126
H 0.5338 1.4795 -0.9525
C -0.0184 0.0167 0.5915
H -2.4132 0.0574 0.3641
C 0.5577 0.4304 2.1568
H 1.6523 1.4390 0.4578
O 0.6805 -0.4571 -3.0301
C -0.5493 -0.3589 -2.2951
18

C -1.7144 -1.0125 -0.1321
N 0.8559 -1.1781 -0.9283
O -1.1028 1.6001 0.5810
C -0.4356 -1.2118 -0.5512
N 1.0813 1.7505 0.0879
C 1.9686 0.8714 -0.3245
H 0.3416 1.4202 2.0744
C 0.1146 1.9958 1.1434
H 0.9313 -1.4814 -1.8790
C 1.7840 -0.5047 -0.2584
N -1.1609 -2.1892 -0.8259
H -1.8682 1.3044 1.0929
H 2.4845 -1.1282 0.2686
H -1.7024 -2.9903 -0.9340
H -2.0850 -1.1959 0.8659
H 2.7519 1.2135 -1.0103
H 0.1459 3.0788 1.3485
H -2.3904 -0.3424 -0.6190
18

N -0.3365 -0.6474 0.6497
O 2.6490 -1.2984 -0.6166
N -0.7151 1.4209 -0.0609
H -1.4566 -2.9310 0.3247
C 0.3410 1.8103 -0.8227
H 0.9668 1.8904 1.2962
H 0.1592 -2.7484 0.9158
H -0.1476 2.1864 -1.7063
H 1.3491 1.7413 -1.1461
H -1.2038 -1.9817 1.6898
C -0.7569 -2.1979 0.7308
H -0.1029 3.2461 0.9267
H -0.8694 -1.6411 -1.4802
C 1.7077 -0.8026 -0.4137
C 0.4753 -0.4156 -0.2897
C -0.6186 -1.2796 -0.5266
H -1.6705 1.3808 -0.1001
C 0.2299 2.2676 0.6292
17

C 1.4443 -1.5762 0.0626
H 1.5562 -1.6294 1.1633
C -0.8738 1.5235 0.2008
C 0.3487 0.6957 0.3664
N -2.1491 1.3561 -0.0721
H 2.1131 1.0815 0.9560
C 0.3055 -0.6338 -0.1627
N -2.1200 -0.8759 0.2307
H 2.4592 -1.3490 -0.3092
H 1.1145 -2.4951 -0.4522
C -2.7303 0.2076 -0.2614
O 1.2648 0.9130 1.4147
N 0.7770 0.4964 -1.0925
H -0.5377 2.5704 0.1881
O -0.9478 -1.0483 0.3911
H -3.6475 0.0693 -0.8185
O 1.6229 0.6942 -1.8052
18

C -1.4724 -0.5136 -1.4467
H -1.7374 -1.5657 -1.4233
H 1.6553 -1.4267 -0.5914
O 1.9692 -0.8256 2.2126
N 0.7524 -1.3533 -1.0686
C 1.1188 -0.1426 1.7328
O 1.3136 1.6192 -1.2165
C 0.1128 0.1643 0.7564
C -0.1941 -0.1107 -0.7324
C 0.1649 1.3712 -1.0502
H -0.6540 1.4403 2.2699
C 0.0835 -1.2580 0.2313
H -1.2847 -0.2081 -2.4753
H -0.2723 -2.0598 0.8278
H 1.0876 1.7265 2.4572
H -0.6534 2.0257 -1.4044
H -2.3230 0.0284 -1.0478
C 0.3333 1.0884 1.9686
17

H -1.6554 -2.2559 -1.9313
C -0.3747 -2.2671 -0.3672
H 1.4897 -0.4621 0.3611
H 1.1808 2.7419 1.5999
O -0.6627 2.4532 0.6673
C -1.3262 -1.5393 -1.1844
H -0.1007 4.1932 -0.5317
C 0.8389 0.3027 0.6293
H -1.0255 -0.6298 -1.6981
H -2.1632 -1.2230 -0.5496
C 0.0170 3.3662 0.0384
N 0.5515 -2.5862 0.3408
O 1.2768 1.3442 0.0203
C 0.7039 2.3845 0.7214
H 1.2114 -2.5515 1.0156
H 0.0972 0.1032 1.3473
H -0.0590 -3.3743 -0.4792
19

H 2.6926 -1.2041 -1.8920
C -1.0202 -0.1050 0.9829
C 1.7031 -0.1012 -0.3941
H -1.4637 -0.8683 1.6216
H 0.1454 1.3898 -1.0569
C 1.7637 -0.8076 -1.6589
H 2.5682 0.1700 0.1729
O 0.6385 -1.2674 -2.2359
H 0.4824 -1.6505 0.4078
C -0.4773 1.0950 1.8261
H -0.8393 1.2376 2.8381
C 0.5535 0.5318 -0.5897
H -2.7955 -0.3081 -0.2813
H -1.9344 1.1890 -0.7089
C -1.9735 0.3261 -0.0572
N -0.1007 -2.0088 -2.4745
H -0.8735 1.9645 1.3037
C 0.3400 -0.6110 0.2658
H 0.5907 1.0281 1.9307
19

C -2.1001 -0.8017 -0.2183
H 1.8921 -1.8163 -0.2991
H 0.0354 -0.3872 -2.0690
O -0.2906 -0.2803 1.3728
H -3.0255 -0.3394 0.0167
N 1.1895 1.0337 0.1269
O 2.5712 1.1899 -0.1180
C 1.0550 -0.1878 0.8350
H -1.9875 -1.8130 -0.5521
H 1.7551 -0.3501 1.6545
O -2.4188 2.3478 0.7535
O -1.4061 2.0314 0.7721
C 0.8917 -1.4491 -0.1093
C 0.1395 -0.6000 -1.0340
H 0.2678 -2.3279 0.0255
H -0.2869 2.0848 -0.8908
H 3.0269 0.3499 -0.1417
C -0.4508 1.3639 -0.1037
C -0.8580 -0.0487 -0.0208
17

H 2.4182 0.8045 -0.3228
C 1.0692 0.1590 1.1282
C -0.3653 0.7458 1.3330
O 0.6720 -0.8721 -2.7820
H 1.1309 -0.9088 1.0034
H -0.4575 0.5818 -2.0689
C -0.8336 -1.2674 -1.1222
O -2.0635 -1.0325 1.2842
H 1.6254 0.4991 1.9928
C 1.4495 0.9586 0.0329
H -0.4241 1.5398 2.0276
O -1.4219 0.9801 0.3928
N -1.4162 -0.1207 1.1044
C -0.1545 -0.4685 -1.9915
H 0.8982 1.7306 -0.3877
H -1.8634 -1.3133 -0.9604
H -0.2633 -2.0162 -0.6635
14

H -0.0579 1.9157 0.4700
H 1.8948 0.8537 -0.7926
O 1.7913 -0.4738 0.6989
C -0.5493 1.0031 0.6550
N -1.1933 -0.3212 -0.9287
H -1.0544 -1.0840 -1.5566
C -0.1607 -0.2533 0.0005
H 2.4845 -1.1424 0.5556
C 1.4129 -0.0912 -0.5399
H 1.5814 -0.7673 -1.3670
H -1.8974 0.3873 1.9125
O -1.6150 1.0518 1.3271
H -1.9903 0.2663 -0.9562
O -0.6466 -1.3447 0.5214
21

H 0.0479 -1.8231 -1.5337
H -1.9928 0.1407 2.2086
C 1.6640 1.1088 -0.1586
H 1.5643 2.2061 -0.2576
H 0.4177 -0.7471 2.0559
H 2.1004 -1.5135 -0.1842
H -0.4492 1.3951 -1.5499
C -0.4452 -0.8650 -1.2981
O 1.9781 -1.3957 0.7982
H -2.5967 0.5804 -0.5071
H 2.2235 0.8933 -1.0972
C -0.5335 0.5480 -0.8688
H 0.0648 -2.1164 1.1195
C -1.9616 0.7870 1.3744
H -0.1109 -0.5128 -2.3618
C 0.5820 -0.0413 -0.0762
C 0.5918 -1.1332 1.0277
H -1.3128 -1.3829 -0.7546
C -1.7523 0.8842 0.0930
O -2.2720 1.9452 1.1618
H 2.1926 1.0423 0.8087
19

N -0.7503 1.0736 -1.1635
H 2.0032 0.5228 -2.0561
H -1.2822 2.4252 0.3159
C 1.1891 -0.1892 -2.0049
N -0.3619 2.7917 0.1512
C 0.4162 -1.8233 1.5268
C 0.2115 -0.4826 2.0134
C 0.3445 0.6862 -1.2228
O -1.6237 -0.6533 0.4036
C -0.9378 -1.1610 1.5099
H -0.0108 2.9970 -1.8261
C -0.0258 2.2968 -1.0147
H 0.7315 -2.1606 0.5824
H 1.4214 -0.9059 -2.7837
H 0.8034 -2.3886 2.3322
O 0.3087 -0.7782 -1.1956
O 0.6999 0.2770 2.7434
H -1.5095 -0.8951 -0.4994
H -1.6271 -1.6328 2.1879
15

H -0.4550 2.8778 -0.8582
H -1.7206 0.3546 0.5879
C -0.0871 1.8638 -1.0108
C 0.0093 -1.8550 0.2072
O 2.0161 2.4270 0.0691
O 0.8193 -0.7542 -0.0269
H -0.2163 -1.9325 1.2698
H 0.3933 -3.6270 -0.7171
H -1.0094 -1.7550 -0.1583
C 1.0811 1.7299 -0.2546
C 0.2271 0.6203 -0.0105
H -0.2328 1.4376 -1.9818
H -0.7001 1.0018 1.9567
C -0.7833 0.6553 0.9701
N 0.6585 -3.0444 -0.0426
12

C -0.2445 0.0387 0.2064
O -2.2129 1.4862 0.5725
N 1.9594 -2.4556 -1.5967
H -0.7209 1.4135 2.2683
O -0.8617 -1.4120 -1.3703
C 0.0157 -0.9315 -0.7643
N 2.6932 -1.6810 -0.8672
H 0.6585 1.6603 1.3812
N -0.1483 1.0121 1.4961
C -1.0654 1.0110 0.3586
H -1.4749 1.3948 -0.6576
C 1.4017 -1.5365 -1.0269
14

N 0.6442 1.1966 0.0535
H 1.0873 -0.9672 -1.9379
H 2.6293 0.9779 1.5072
H -3.6056 0.4852 0.4474
N 1.4657 -0.1501 -1.4892
H -1.6924 0.2977 -0.8784
H -2.7510 -0.2851 1.7079
O 3.3203 -0.8288 0.8721
H 2.3910 0.1046 -1.8827
H -3.1698 -1.1898 0.2958
C -2.8067 -0.2307 0.6193
C 1.4668 0.3824 -0.1785
O -1.5642 0.0752 0.0450
C 2.5850 0.1321 0.8185
17

H 1.1527 0.3160 -1.5435
O -0.8419 -1.0338 1.4388
H 0.3660 2.1324 1.3840
C -0.3576 -0.7025 0.2596
H -0.3897 -2.9489 -0.2433
C 0.5942 -0.1649 -0.7510
H 1.8489 2.4572 0.5076
O 0.2329 2.5770 -0.6544
H -2.4227 -1.9827 0.6813
C -1.8019 -1.1751 0.3625
C -0.0278 -1.9900 -0.4492
H -0.2484 1.9907 -1.2184
H 1.9338 0.0379 1.0180
C 1.0965 0.4552 0.4780
H -2.3847 -0.4785 -0.2157
C 0.8788 1.9498 0.4343
N 0.3708 -1.4397 -1.4885
19

H 1.3065 0.3387 0.9827
O 1.6679 -0.2707 -2.6286
C 0.6122 -0.0312 -1.7589
O 0.6615 2.4237 -2.0627
N -1.3840 1.4186 -0.6303
C -0.0972 0.7719 -0.4821
H 1.4902 -0.5088 -3.5571
H -0.3308 -2.0006 2.6390
H 0.0435 -0.9369 -1.6740
C -1.0946 0.3653 0.3732
H -2.0084 -0.6473 1.7105
C 0.3127 1.3786 -1.7158
H 0.6371 -2.2244 1.1842
C 0.5453 -1.7872 2.1198
C 0.2482 0.5560 0.9998
H 0.0310 0.7331 2.0482
H 1.3629 -1.4326 2.6624
H -1.8627 2.1534 -1.0115
N -2.1413 -0.2997 0.8011
18

C 0.8947 0.2865 -1.7343
H 1.6614 0.3491 -3.6836
C -2.4369 -0.6655 0.8837
H -2.6143 -1.5146 0.1817
H -3.1702 -0.8799 1.6830
N -0.0189 0.1301 0.4741
H 2.1234 -0.2535 0.2052
C 0.5678 1.1210 -0.4880
H 0.5059 2.2256 -0.4763
H -2.6361 0.2154 0.2320
H 0.2365 -0.5515 -1.8192
H 1.7370 0.9210 1.4540
C 1.3445 0.4158 0.5705
N -0.7398 -1.0101 2.5357
C -1.0740 -0.5602 1.3975
H -1.1077 -1.1814 3.4626
H 2.8752 0.5323 -2.2539
C 1.8515 0.4199 -2.6249
18

H 0.5033 -2.6027 -2.5826
C -1.3839 0.8850 2.7875
C 1.3577 -2.0952 -2.1654
H 1.4948 0.9256 0.1909
H -1.8843 1.0216 -0.7329
H 2.4442 -0.7024 -1.5847
H -0.4076 -1.1566 -0.1012
H 0.2798 1.9137 1.7263
C -0.1770 -0.1508 -0.3217
N -0.3370 1.2259 1.9843
O -1.2181 0.1484 1.7280
H -1.1004 0.5023 3.7648
N 0.6707 0.7911 -0.3145
H -0.8303 0.7333 -2.1054
H -2.2241 1.5669 2.8331
H 2.0406 -2.8594 -1.8975
N 1.6512 -0.8716 -2.1680
C -0.8795 0.7249 -1.0410
21

C -1.1370 -1.3079 -1.9189
O 2.4562 0.2446 -0.2201
O -3.5206 -1.2258 -1.2956
C 0.4113 0.7210 1.2631
H -1.1217 -1.2192 -3.0064
H 1.5428 2.4737 1.2559
C 0.1068 0.1194 -0.0259
C -1.5936 0.1212 -0.4942
H -2.0047 1.1323 -0.6308
H 3.7608 0.9273 1.2118
N -0.4034 -0.1100 -1.3828
H -4.1315 -1.9295 -1.2471
N 1.4331 -0.2655 -0.5224
H 2.6680 -0.4089 1.6924
H 1.9269 1.7179 2.7751
H -0.8232 -2.2751 -1.5074
O -1.1855 -0.6301 0.5051
H -0.4048 0.7578 1.9676
C 2.7318 0.5572 1.1592
N -2.3724 -0.8866 -1.3127
C 1.6607 1.4862 1.7341
15

H 1.6256 -0.9025 1.5772
C -0.9118 0.1334 0.5188
O -0.6861 -0.8834 1.5613
H 0.6437 -1.2294 2.9575
C -0.1757 1.8679 -2.7957
O 0.6093 0.7595 1.9896
N -0.4218 1.2372 1.2753
H -0.4936 -1.8228 -0.8721
N -0.1613 1.1665 -1.7090
C -0.1639 0.2112 -0.8518
C 0.6294 -0.6844 2.0167
H -1.9682 0.0558 0.2070
N -0.0600 2.5488 -3.7003
C 0.2813 -1.0482 -0.9293
H 1.2531 -1.4096 -1.2450
17

C -0.5996 1.3608 0.4958
N -1.0336 -1.0183 -2.1229
H -1.0866 2.2745 0.2366
N 1.0604 -1.4179 -0.6787
H 0.9233 -1.2290 2.4988
H -0.9057 -1.1753 -3.1122
H 2.0349 -1.1382 -0.7908
C 0.3735 -1.1152 0.4323
N -1.1207 -0.1403 2.0843
C -0.6583 1.1388 1.9802
C 0.2381 -0.8014 1.7863
C 0.1063 0.7113 -0.6093
C -0.5429 -0.0730 0.7036
H 1.0321 0.5451 -2.3356
N 0.4920 1.1516 -1.7299
H -0.2196 1.9611 2.5252
C -0.0935 -1.0346 -1.3638
21

H -0.1970 -3.2260 -1.4366
C 0.1111 -2.3469 -0.9067
N -1.9914 0.5488 0.2843
C 0.8606 2.2146 1.1801
C 0.9061 0.1858 0.0563
H 0.4183 0.3340 2.2968
H 0.6051 -2.5819 0.0196
H 1.1281 0.8590 -0.7797
H -2.8871 0.3352 0.6495
C -0.5993 -0.1772 0.3543
H -0.9485 -0.9446 1.1118
H 1.7184 -0.5169 0.1456
H -2.0746 1.1765 -0.5119
C 0.3102 0.7193 1.2938
H 1.2358 -1.1985 -2.5634
H 1.9285 2.0049 1.1899
C 0.5432 -1.3809 -1.7856
H -1.4183 -0.7199 -1.6518
C -0.6090 -1.0265 -1.0218
H 0.0060 2.4964 0.5450
H 0.9537 3.2446 1.5305
16

O -2.0441 1.5896 0.0255
H -0.5219 -1.0899 1.8399
C 2.3023 -0.1731 0.8135
N 0.3626 1.7277 -0.2200
H -0.3867 -0.5439 -2.6781
C 0.9557 -0.3530 0.6105
N -1.2689 -1.2254 -0.9251
C -0.3571 -0.4143 -1.6092
C -0.9104 1.1479 -0.0384
N -0.1228 0.9895 -1.3214
C -0.2370 -0.7982 -0.1241
H 0.5513 1.2353 1.9906
H -2.0403 -1.6617 -1.3510
N 3.3578 0.0703 0.8394
C 0.2892 0.9422 0.9923
N 0.0703 -1.4429 1.1557
17

N 1.8891 -0.3671 1.1482
C -0.4844 1.5642 -0.4707
O -1.2012 2.7726 -0.5029
H 1.8040 -2.1052 2.2542
O 0.2117 -0.4884 -1.0391
H 2.5122 -0.7317 0.4535
H 0.4999 1.9624 -0.2304
N 0.6153 -0.1550 1.2856
C 0.0280 0.2039 0.0771
H -1.3494 -1.7760 -1.5320
H -0.3893 -2.1528 -0.0587
H -2.2731 2.3881 -1.9706
H -1.3703 0.9167 -2.1706
C -0.6766 -1.4187 -0.7814
H 0.4867 -1.1818 2.9595
C 1.1607 -1.2239 2.0981
C -1.4633 1.7928 -1.5197
17

N -0.2057 -0.1438 2.4002
C -0.1548 -1.0691 -1.0002
H 1.2223 -2.0983 0.4255
C -1.2639 -0.0531 -0.6389
H 2.0370 -0.7394 -0.2739
O 0.2924 1.8183 -1.1521
H -0.4012 -0.4506 3.3378
H -1.9979 0.2892 -1.2787
H -0.2246 -1.6237 -1.8632
C -1.0922 0.4610 0.8377
H 0.9991 1.3314 1.4253
C 0.6096 1.2087 -1.9160
C 0.0244 -0.1567 0.0735
C 1.0845 -1.1705 -0.0662
C 0.2712 0.5794 1.3776
H -1.7841 1.1701 1.1078
H 0.5838 0.6471 -2.7962
20

H 2.8835 -1.4266 0.6309
H -2.7947 -2.1850 0.1283
N -0.6391 -0.2585 -0.7945
C 1.7875 1.6134 0.4225
C 1.8784 -1.0659 0.6967
H 0.5371 1.6927 -1.5506
H -2.2653 -2.4911 -0.2258
N 1.6152 0.2858 0.7295
H -0.3958 0.6859 1.9939
H 1.1994 -1.8768 0.8742
H 2.6953 1.9052 -0.0884
O -0.6215 1.2536 1.1718
H -0.9920 -1.4474 1.0550
C -1.8526 -0.0688 -1.3202
C 0.0974 0.3565 0.4793
H -2.8771 -0.2908 -1.0959
H 0.9531 1.1485 -1.7887
C -0.6790 -0.8205 0.2857
H 1.1658 2.4736 0.5987
H -1.6955 0.5164 -2.2023
21

H -1.8308 1.5552 -0.9396
C -0.4227 -1.6612 1.0616
H -1.4185 0.1001 -1.7037
C -1.2718 0.6661 -0.7671
H 1.6953 -0.9456 -1.3690
O 0.0205 -2.3398 2.2120
H 0.6788 2.7436 -1.6537
C 0.3382 -0.9914 1.8722
C -0.9838 1.0510 0.8659
H -0.8249 2.0826 1.0975
C 1.3648 2.1458 -1.0354
C 0.7609 -1.1734 -0.8977
N 0.6312 -0.7186 0.4015
C -0.1946 0.3553 0.0075
H 0.5320 -0.3200 2.6497
N -0.1481 -2.0407 -1.2731
H 0.3116 -2.8810 -1.5236
H -1.4149 -1.8778 0.7897
O 1.4067 1.9516 0.1290
H 2.1757 1.7142 -1.6494
H -1.4054 0.5843 1.7257
21

H -1.6564 1.2370 1.7803
H 1.5035 -1.6436 -2.8282
C 0.7979 -1.3109 -2.0905
H 0.4276 0.5721 -2.7733
C 1.1748 -1.5092 -0.7465
H -0.0347 0.1417 2.3525
C -0.4484 0.3808 -0.9281
H 1.4679 0.3131 0.2769
C 0.7409 -0.2134 -0.1923
C -0.5772 -0.4834 0.0876
H -0.9863 1.2877 -0.9236
H 1.8469 -2.1534 -0.2417
C 0.3490 1.1509 2.3276
C -1.0094 1.0236 2.5138
H 1.2947 1.3861 2.3103
H -1.4137 0.7173 3.3696
H -1.2482 -1.0508 0.5866
H -0.3421 1.9966 2.7390
C -0.2520 -0.1998 -2.3939
H -1.1525 -0.0066 -2.9674
O -0.4823 -1.6358 -2.2587
19

C -0.4740 -0.3892 0.0996
H -0.0065 2.4603 0.0043
C -2.7985 -0.5833 -0.2656
H 2.5503 -0.7686 1.0181
C 1.5612 1.1265 -1.1171
O -1.6547 -0.9785 0.2673
H 1.9201 -2.3334 1.3787
H -0.6525 0.3681 -1.8084
H 1.8973 0.5708 -1.9284
C 1.6648 -1.3146 1.2631
H 2.3690 1.2373 -0.4395
H -0.0408 -1.8268 2.5233
N 0.5129 -1.0917 2.2160
H 1.1032 2.2111 -1.5502
C -0.1071 0.5375 -0.9488
C 0.4060 1.7772 -0.6647
C 0.4882 -0.7265 0.9985
C -3.8831 -0.2767 -0.4699
H -4.8557 0.0006 -0.5764
18

N -0.8520 -1.2793 -1.1366
H 0.3097 -2.5459 2.3134
C 0.9126 -0.5807 1.5762
C 0.9431 -2.0554 1.5728
N 1.0008 1.6262 0.1744
H 0.7493 1.9082 1.1191
H -0.6143 2.1922 -2.4415
C 0.6264 0.1552 0.3308
H 1.8441 -2.5879 1.2532
H 1.0574 -0.0942 2.5212
O 0.9446 1.6946 -0.9656
C -1.0970 1.4272 -1.8471
H -1.8058 0.8141 -2.4033
C -1.3916 1.0516 -0.6343
H -0.0236 -1.6767 -1.5823
C -0.6394 -0.2677 -0.3018
C 0.2013 -1.2849 0.4668
H -2.1656 1.5034 -0.0152
16

O -2.6008 -1.8799 1.0229
N 2.3460 2.0544 -0.1177
H 1.4735 -0.0746 -0.3715
H -0.9361 2.1263 0.8043
O 0.0118 -2.2449 -0.5634
N -0.1625 1.5813 0.5765
H -0.7133 -0.1768 1.7440
C 0.7598 0.4770 0.1680
N -0.9626 -0.6807 -1.6049
O 3.2449 1.4294 -0.3677
C -0.4038 -0.0597 0.7500
H 0.9697 -2.2771 -0.4381
H -2.5115 -1.4116 0.3041
C -0.4631 -1.0017 -0.4166
C 1.0473 1.8563 0.1407
H -1.0992 0.2824 -1.6307
13

H 0.9258 -1.8459 -2.3825
H 1.5099 0.9153 0.4116
C 0.3619 -2.2517 -1.6016
H -0.2810 0.5493 -1.7195
H -0.6368 -1.9570 -1.5595
H -1.3868 0.7105 3.8581
C -0.9754 0.8731 1.7186
H 0.6871 2.4171 -0.2155
N -0.1911 0.5334 -0.7865
C -1.2190 0.8580 2.8596
O 1.0126 -3.0663 -0.9614
C -0.4809 0.8818 0.4407
C 0.6736 1.3825 -0.0622
19

O -1.2419 0.6332 1.7212
H 0.4928 2.4926 0.8219
H -0.5375 1.3443 -0.8913
C -0.4966 0.3577 -0.4729
H -0.5758 -0.0736 -2.7948
C -0.2223 -1.0273 -0.0069
C 2.0978 -0.2426 0.7074
H 1.9576 1.8023 1.3538
C 0.7643 0.1500 0.4273
C 0.9513 1.5687 1.0711
N -1.7827 -0.3488 -0.4820
H -2.4876 -0.0762 -1.1137
O 3.0749 -0.4235 0.3619
H -1.1867 -2.2953 -1.5461
O -0.1042 -0.8683 -2.5246
H -0.0840 -1.9162 0.5673
C 0.0116 0.5194 1.7090
H 0.1166 -0.2774 2.4797
C -0.7474 -1.3191 -1.3884
19

H 2.4141 -0.9554 -1.2103
H -1.2559 -1.4526 -0.1280
C 0.6517 -0.4527 0.2926
C 1.6307 -0.2108 1.3477
H 0.2452 0.0353 -2.5091
N -0.5744 0.2969 0.5604
C 0.6882 0.9299 0.7945
H 1.0116 1.3370 -1.6784
C -4.2318 1.5056 -0.0426
H 2.6637 -0.0040 1.2347
C 1.3781 -0.9325 -0.9238
H -5.2679 1.7134 0.0243
H 1.1979 1.8120 0.5598
H 0.0589 -1.1626 2.0584
N -3.1760 1.2100 -0.1273
O 0.9763 -1.0920 2.3017
C 0.8187 0.2803 -1.6412
H 1.3219 -1.9836 -0.5282
N -0.5511 -0.8740 -0.3853
17

N -1.0768 -1.3518 -0.2688
N -1.9648 -1.7367 1.3666
H 1.2369 0.5394 1.2136
H 1.0736 3.4535 -0.5038
H 1.9527 0.8599 -0.5770
C 0.2706 1.7289 0.0529
H -0.6192 1.9268 0.6072
H -1.8644 -1.5224 2.3367
O 1.7268 -0.9118 0.1923
H -0.6008 -2.1177 -1.8453
H 0.1188 -0.5587 -1.9163
O 0.5350 2.7141 -0.7226
N 1.1126 -1.7448 -0.5848
H -1.4515 0.2762 1.0034
C -0.1167 -1.3636 -1.2182
C -1.5038 -0.7457 0.7491
C 1.1711 0.5546 0.1152
20

C -2.2220 0.7877 0.0477
H -1.2277 -0.4274 1.7910
H 0.1125 2.7542 0.1343
C 1.5223 -0.1892 -0.8933
H -2.2889 1.2386 -0.9471
H -1.2371 -0.7706 -1.1924
H 0.7865 -2.9577 -0.4846
H 2.3368 -2.3334 -0.6040
H 1.6795 -2.1321 0.9622
C -0.8955 -0.3059 -0.3083
C 0.6157 -0.9224 -0.3224
H -2.4790 1.6802 0.6588
H 2.4467 0.1524 -0.4587
C -1.0964 0.2269 0.9235
O -0.0118 1.1114 1.3111
C 1.3951 -2.1350 -0.0948
C 0.6090 1.9398 0.5958
H -3.0897 0.1258 0.1510
H 1.3839 0.1906 -1.9074
H 1.6601 1.9661 0.6375
16

H 0.8510 -1.6269 0.5509
H 1.4959 1.2044 -1.7711
H -1.6753 -1.8098 1.2468
N -2.7295 -1.5914 -0.4571
O -0.9463 0.9451 -0.3261
H 1.2802 1.3495 0.3578
O 0.3558 1.1426 2.9768
C 1.1148 0.2075 -1.7630
H 0.5909 -0.1345 -2.6355
C 0.7123 -0.7479 -0.0134
O 1.7586 -0.6411 -1.0159
C 0.3572 0.8515 1.9780
C -0.6946 -0.3104 0.0349
C -1.8328 -1.3307 0.2726
C 0.4694 0.6610 0.5136
H -1.1077 1.8313 0.0507
18

O -1.0505 -1.0730 1.4483
C 0.2691 -0.9151 -0.5100
O 0.5149 1.5469 0.4506
C -0.4971 2.2970 0.9724
H -0.3526 2.6467 1.9900
H 2.1078 0.7307 -0.7364
H -3.7094 -0.7010 0.2169
C -3.1042 -0.6575 -0.5621
H 2.0355 -2.2737 -0.3749
C 2.3368 -0.2924 -0.8390
H 1.5698 -1.3862 1.0095
H -0.9842 3.0405 0.3698
H 3.0988 -0.5679 -1.5383
C 1.6116 -1.3217 -0.0869
N -0.6264 0.9659 0.5772
H -0.0567 -1.0145 -1.5127
H -2.6114 -0.6105 -1.4032
C -0.5516 -0.4142 0.5288
23

C 0.4755 0.6657 -1.1673
H 0.3966 -2.1333 1.0078
H -1.2717 1.9080 0.6806
H -2.2004 -0.9538 0.3699
C -0.4808 1.2102 0.8208
H 2.6238 0.1430 0.5668
H 1.2791 2.3488 0.0459
H 2.1722 -1.0986 -1.8480
H 1.3708 0.8491 -1.7077
O 2.3912 -0.6873 0.2416
C -2.7385 -0.1319 0.0199
H 2.2201 -2.3171 -0.7111
H -1.5552 1.0091 2.5548
N -0.7342 0.6472 2.1969
H -0.2649 -1.3546 -1.3817
H -2.9510 0.7377 0.5584
N -0.1274 -0.0276 1.3410
H -0.3428 0.9812 -1.7882
C 0.4023 -0.7935 -0.7520
H -3.2939 -0.2227 -0.8461
C 1.8778 -1.3105 -0.8390
N 0.5505 1.6793 -0.0202
C 0.2009 -1.1485 0.6568
19

C 0.6913 -0.4959 -0.4819
O 1.0860 1.0751 1.3615
H 2.3784 -0.0082 2.5601
C -1.3362 -1.7220 -1.4152
H 1.4104 -0.6477 -1.2449
H 0.1739 2.6868 -1.2412
C -0.7633 -0.8230 -0.4467
H 0.0574 -2.3528 0.9319
C -0.0360 2.2426 -0.2815
H -1.5636 -2.6879 -1.6089
C 0.1479 -1.4395 0.4496
H 2.5630 -0.1784 0.7344
C -1.6153 -0.5312 -1.5394
H -1.9248 0.4051 1.0270
C 0.1588 0.9294 0.2512
C -0.9899 0.1187 0.6645
H -0.3003 2.9360 0.4858
H -2.1729 0.2625 -1.7896
C 2.0352 0.2303 1.5833
20

H -0.8867 -1.7398 -1.2339
C -0.2321 0.1520 -1.1486
C -1.4837 -0.8360 -1.5585
O 1.6973 -1.8014 1.4199
H -1.6149 1.4834 1.7126
H -0.2050 1.0325 2.7094
H 2.6360 -0.6866 0.0985
C 0.3970 2.0235 0.7828
H 0.0006 2.9065 0.2913
H 1.4709 2.0840 0.9941
H 0.0625 0.8504 -1.9261
H -2.1847 0.0541 -1.3909
C 0.5536 -0.3604 -0.1557
H -2.4046 -1.4705 -1.3749
C -0.5510 1.2718 1.7091
H 1.7251 -2.0463 -0.6837
O 0.7765 -1.5297 1.9661
C 1.6970 -1.2458 0.0606
H -1.3625 -0.8308 -2.6737
C -0.0915 0.6892 0.4016
18

H -1.4195 1.8734 -1.6926
H 1.8998 -0.9522 1.6042
H 0.8239 0.3358 -0.3245
H -0.9604 0.0608 2.1708
H 0.2721 -1.6513 1.2767
C 0.9916 -1.3851 2.0549
H -1.9402 0.0304 -2.4675
H 1.2008 -2.4829 2.0540
C 0.1198 0.2056 2.2580
N -0.7199 -0.8683 -1.0492
H 0.0540 0.8230 -3.6611
H 1.0282 -1.3505 3.1714
C -0.1180 0.2999 -0.8502
O -0.1083 -0.0924 -3.3441
O 0.5928 1.2519 2.5999
C -0.8871 -0.1462 -2.2017
C -0.6349 1.6123 -1.0443
H -0.1946 2.4359 -0.5545
22

H 0.0064 2.3272 -0.5152
H -2.2346 0.6898 1.1321
H 0.8326 0.6252 1.4173
H -0.2141 -1.2483 0.3900
H 1.1599 -0.2349 -2.0949
H 1.6339 -1.8986 1.4257
C -0.0084 1.2734 1.3861
H -0.2042 -1.3831 -2.2616
H 0.0149 1.8396 2.3104
C -1.4512 1.4308 0.9659
H -1.9765 2.8867 2.0831
N -1.3312 1.0355 -2.2396
H 1.3524 -3.1939 -0.3284
C 1.6747 -2.2955 0.3384
H -2.0264 0.4140 -2.6351
H 2.2003 -3.1291 0.8824
C 0.2827 -0.6750 -1.5575
C -0.4208 1.3973 -0.1068
C -0.6465 0.5611 -1.3239
O -1.8646 2.7565 1.1711
H 2.5982 -1.8354 -0.1566
C 0.6224 -1.3432 -0.2832
17

C 0.3446 -1.3730 0.8145
H 1.1548 -1.9016 0.4907
C -0.9716 -1.3988 1.0979
H -1.6629 -1.1599 1.8409
H 1.4232 0.6000 -0.6803
C -2.1534 0.0704 -0.6977
C 0.3757 0.6908 -0.8748
H 0.3242 -0.2118 -1.4238
H 5.2784 1.1789 0.4102
H 0.3584 1.7153 -1.0604
H -1.4415 -2.1367 0.5169
N -1.0137 0.7196 -0.4759
H 5.5841 0.8616 0.2793
H -2.7143 -0.6063 -1.1843
H -2.7411 2.1400 -0.2229
O 0.0783 -0.4647 1.5332
C -2.2230 1.2761 -0.3635
18

O 1.7973 1.5083 0.1778
H -2.5197 -0.4571 1.4798
C 1.0140 -0.5259 -0.0061
H 0.3875 -0.5943 2.3507
H -0.1514 -2.1082 -1.6212
C -1.5590 0.3896 -0.4911
C 0.0944 -1.4654 -0.8016
H -2.2143 1.3680 1.5210
H 2.8603 -0.0390 -0.8235
C 0.2163 -0.4401 1.3218
C -2.0240 0.4046 1.0561
H 1.6364 0.7811 -1.7807
C -0.6264 0.2827 0.5903
N -0.2461 -0.0907 -0.9222
O -2.3749 0.5814 -1.3586
H 0.9677 1.9440 -0.1321
O 0.8571 -1.9794 0.2084
C 1.8848 0.4405 -0.7689
16

H 0.3482 1.7616 0.1949
C 0.1218 -0.4678 1.1069
C -0.9828 -0.4910 -0.3811
H -1.7499 1.4311 1.2621
N 2.5024 -0.0842 -0.7754
N 2.3893 0.1593 0.5634
O 0.0309 -0.6768 2.2792
H -2.7184 -1.8135 -0.7763
H -2.4217 0.9187 -0.2986
H -0.6714 -0.6378 -1.4397
C 1.2568 -0.1007 0.2452
C -0.0370 0.7380 0.1243
H 2.4113 0.7064 -1.3890
H 3.2277 -0.7397 -0.9561
O -2.1287 -1.4636 -0.1490
C -1.5783 0.7600 0.3894
21

C -0.2399 -0.0341 -0.6299
C 0.2520 1.0163 -1.5668
C -1.3375 -0.7364 -1.2141
C -0.5993 0.7267 2.5022
H -1.5555 0.7927 2.8215
H 1.7373 -1.5470 1.2970
H 0.8328 -1.9135 -1.1889
C 0.0356 1.5100 1.6247
H -1.0191 -1.5242 0.9477
N 0.0108 -1.4059 -0.9675
C -0.0041 0.3890 -2.6970
H 0.6803 1.9870 -1.4946
O -0.1185 2.6224 1.2924
H 2.0563 0.0544 0.7081
H -0.7877 0.6814 -3.3322
H 0.6447 -0.3753 -3.0446
C 0.3142 -0.0624 1.8850
C 1.2635 -0.6259 0.9984
H 0.4976 0.0499 3.0059
O -2.4231 -0.7812 -1.6259
C -0.2403 -0.8240 0.6788
14

O 1.4409 0.1463 0.3804
C 0.1905 -1.3353 -0.4906
C 0.5316 1.2704 0.4108
H -0.0088 3.2978 0.2906
H 1.1530 0.5864 -1.6451
C -1.1963 -1.3985 -0.1166
H -1.4426 -2.4421 0.0612
O -0.2464 0.7420 1.3502
H -0.0676 -0.1403 1.7312
H -1.9751 -0.8111 0.3706
O -0.6812 -0.4969 -1.2448
H 0.8840 -2.1405 -0.5936
C 0.6756 0.1168 -0.7952
N 0.7425 2.6048 0.2910
22

H -0.9432 1.1357 1.7698
C 0.1944 -1.5085 -0.9754
H 0.0692 -0.6858 2.3209
H -0.1962 -2.1574 1.2949
H 0.6797 1.5106 -0.8456
H -1.7574 2.2140 -1.5487
H 1.6710 0.8052 1.4327
H -0.5812 2.7278 0.9082
H -1.7291 -0.7836 -2.5481
H 1.2191 -1.8767 -0.9615
C 0.1871 -0.3736 0.1047
C 2.4348 0.1508 1.1453
H 2.4470 -0.5565 0.3551
H -0.3677 -2.3645 -1.3439
H -1.8535 -0.8853 -0.2979
C -1.3123 1.2221 -1.4125
C -0.6285 1.6735 0.9106
C -0.1968 1.0567 -0.3758
C -0.9750 -0.5162 -0.8390
N -1.6279 0.1524 -2.1660
C -0.0343 -1.1112 1.3463
H 3.3008 0.1703 1.7259
14

N -0.9772 0.2364 0.8271
C -0.0390 -0.5700 1.6925
H -0.6427 -1.6541 -0.2643
H 0.9827 -0.2768 2.0038
N -0.5983 0.2819 -2.3498
N 0.5135 -0.4534 -2.3060
H -1.5618 0.9334 1.3221
O -0.5737 1.2551 -1.5382
O 2.2224 -0.4671 -1.0066
C 0.9758 -0.2129 -0.9751
C -0.1115 -0.7304 0.1041
H -0.5422 -1.0955 2.5254
C -0.0649 0.9278 -0.2336
H 0.4170 1.8256 0.1986
13

C -0.7099 0.7602 -0.8644
C -0.2034 0.3617 0.2834
H -1.5042 1.0788 -1.4145
O -0.8554 -0.4058 1.1476
C -0.8356 -2.0479 -1.0098
C -0.7538 -0.7222 -0.3328
N 1.6297 0.8919 2.7197
H 0.7980 2.3455 -0.2771
C 0.6638 1.3125 -0.4818
H 1.4740 0.8834 -1.0032
O -0.0018 -2.5967 -0.4803
H -1.4610 -2.7229 -1.5961
H 1.7596 0.8614 3.3093
16

C -1.0561 1.0224 0.1233
H -0.7672 -1.3742 1.5251
O -0.2487 1.8230 1.0107
H -0.7047 -1.5930 -1.3148
C 1.5941 0.2586 0.9813
H 0.2295 -2.7523 -0.3958
C -0.6917 1.5346 -1.1565
C 0.1316 0.4420 0.8022
C 0.0974 -1.6858 -0.5685
H 2.1885 1.1596 0.9093
H -2.0477 0.7551 0.4444
H 1.0296 -1.3139 -1.0119
O 1.9468 -0.8238 1.2383
H -1.3661 2.3433 -1.3258
H -0.0279 1.1583 -1.9030
C -0.3074 -0.9539 0.6418
17

C -0.9271 0.2432 1.2096
H -0.6954 -2.3088 0.4083
H -0.5019 0.1516 2.1892
H -0.2825 -2.1798 -1.3036
N 0.1147 1.9184 0.1458
H 2.1690 -2.2711 -0.3304
C 0.5145 -0.4648 0.1775
C -0.0362 0.6883 -0.6161
C -1.5059 1.4564 0.7560
C 0.9894 1.5752 -0.9469
O 1.7963 1.6477 -1.8177
C 1.3963 -1.5538 -0.1296
C -0.0807 -1.7850 -0.3153
O 1.9348 -0.3816 0.4348
H -1.9363 2.4442 0.8770
H -0.8016 0.5301 -1.3743
N -2.1474 0.2898 0.6356
19

H 1.5843 0.9376 -2.8790
C -0.1478 1.0860 1.0319
O 0.9188 0.3078 0.7893
H 1.8210 -0.3133 -1.8144
C 0.1445 -0.9385 0.6277
H -0.4443 -0.4343 2.8477
H 0.4479 -1.7248 -0.0226
C -1.1144 0.8080 -1.1014
H -0.4732 -0.8059 -2.2371
H -0.9580 -1.8664 2.0549
H 1.3920 1.4538 -1.2687
C -0.1767 0.0952 -1.7231
C 1.2174 0.5907 -1.9125
H -1.9083 -0.1511 0.6364
C -0.9415 0.1205 0.2670
H -1.6705 1.5872 -1.6102
H -0.4235 1.8878 1.6561
C -0.1171 -1.1760 2.1153
H 0.8495 -1.4644 2.5427
20

C 0.3750 -0.2804 0.1062
C 1.3878 0.6184 -0.4150
C 0.4858 -0.6122 1.5866
H -1.3178 0.6257 2.0887
N 0.6256 -1.6290 0.2858
H -0.6484 1.5712 -2.2266
H 1.4862 1.5399 0.0956
H -1.8823 -0.2050 0.1511
H -0.0580 -1.3137 2.2057
O -0.7878 0.7135 -2.6235
H 0.5238 -2.5970 0.1525
C -0.7144 -0.3932 -1.6637
C -0.2569 0.6849 2.0466
H 1.5256 -0.6038 1.9299
H -1.0252 -1.3989 -1.7254
H 0.2154 1.5908 2.3369
C -1.0096 0.1959 -0.3473
H 2.0486 0.3646 -1.1976
H -1.0600 1.2802 -0.2641
H 0.0866 -0.1520 -2.5223
14

N -0.8305 1.8894 0.0952
H -1.1037 2.5042 0.8423
O -1.0078 2.1485 -1.2802
C -0.4092 -0.6457 -0.9965
O 1.4389 1.4164 0.9121
H -1.1944 -1.2323 -1.4310
H 1.5599 -3.5179 2.0250
H -0.3308 1.7425 -1.7947
C 0.6364 -1.9243 0.9151
C 1.1367 -2.7611 1.5332
H 0.3199 -0.3791 -1.7278
C 0.0942 -0.9061 0.2347
C 0.3528 1.3326 0.4866
N -0.6625 0.3329 0.1858
20

C 0.8150 0.8361 1.0938
C -0.2727 -1.1092 -1.6862
H 0.0113 -2.1174 -1.4463
H -1.0761 0.6124 2.2674
O 1.0057 -0.4394 -1.9602
H 1.2903 1.3689 0.3180
C -1.4034 0.7573 -0.5076
H -0.6552 1.3995 -0.9295
O 1.4860 1.8066 3.1225
C -1.3399 -0.6564 -0.6769
O -2.3637 -0.0058 -1.2574
C -0.1641 0.2097 1.8995
H -1.7398 -1.3716 0.0203
H 1.9298 -1.4358 -0.3083
H -0.7943 -1.0762 -2.6178
C 1.8514 -0.5988 -0.9672
C 0.8905 1.2158 2.2853
H 2.6438 0.0809 -0.8028
H -1.9867 1.3718 0.1307
H -0.1279 -0.8481 2.0225
16

H -1.3174 -0.2145 -1.2124
H -0.9301 0.5248 1.7386
C -0.8195 -0.0141 0.7765
N -1.7779 0.2512 -0.4061
C 0.5349 1.7656 0.6160
H -0.9837 -1.0452 1.1138
O -0.3744 2.5455 0.6334
H 2.1430 -3.3634 -1.5576
H -1.9169 1.2472 -0.6659
O 1.4773 -0.0679 -0.8093
H 1.4016 -0.1121 1.1926
C 0.7081 0.2701 0.4176
C 1.4040 -1.3221 -1.0735
C 1.7042 -2.4158 -1.4302
H -2.7471 -0.1235 -0.3727
H 1.4941 2.0743 1.0393
18

H 0.3721 -2.1080 0.3057
N -0.4999 -1.2288 2.3534
H 0.9030 2.3522 -1.5108
C 0.1326 -1.5054 1.1538
C -0.0610 1.0643 0.6352
C -1.1763 -0.8795 1.1745
H 1.8430 0.0545 -0.1159
H 1.0762 -1.3698 1.6879
C 0.9289 0.4222 -0.5076
C 0.8167 1.2993 -1.4701
H -0.3574 2.0900 0.5409
C 0.4332 0.0258 -1.9743
H 0.6485 0.0448 -3.0324
H -0.2962 -0.7472 -1.8637
H -2.1921 -1.1866 1.2963
H 0.3311 0.9451 1.6347
H -1.7924 0.4902 -0.5281
C -1.1100 0.2371 0.2205
17

C -2.1089 -0.9972 0.3750
C 0.2513 0.9530 -1.0042
N 3.2981 -0.9543 0.4302
O -0.1768 -1.5733 -0.7119
H -0.4959 -0.5362 1.4908
C 2.2204 -0.6074 0.2958
H -2.8425 -0.5650 1.0717
C 1.1442 1.2556 0.3326
H -0.4529 0.3424 -1.6225
C 0.8735 -0.1974 0.0154
H -2.2224 -2.0429 0.6426
H 0.8753 1.5207 1.3758
H 1.0123 1.1429 -1.7944
H -0.4563 1.8230 -0.8186
C -0.5224 -0.8409 0.4008
H 2.0563 1.8036 0.0583
H -2.4531 -0.5265 -0.5373
23

C 0.0447 -1.6140 1.1553
C 0.1168 3.2496 -0.6879
H -1.9197 -1.4529 0.4484
H 0.6387 -1.4053 3.3823
H 0.3608 3.6753 -1.6234
H -0.2791 -1.9493 -1.7660
N 0.2313 0.0315 -2.1074
C 0.6278 -0.3114 1.3508
H 1.5772 0.0905 1.6091
C -1.1031 -2.1345 0.5964
H -0.3206 3.6663 0.1748
H 1.1970 1.8035 -0.7180
H -0.7809 1.2519 1.2719
H 0.4308 0.1763 -3.0291
C 0.0603 1.7329 -0.6690
H 1.2716 -1.5563 -1.0035
C 0.3726 -1.4035 2.3976
O -0.6600 -2.4823 1.9852
H -1.1399 -3.0163 0.0052
C 0.3243 -1.1580 -1.3468
C -0.0215 0.1646 -0.7737
C -0.0931 0.7855 0.5686
H -0.9357 1.8560 -1.2206
19

H -1.1350 -2.5350 -2.4893
H -1.1274 -0.9614 0.3537
H 2.1057 1.0089 2.5845
C -0.5491 -1.7709 -1.9972
H 0.2023 -1.6907 -0.2007
O -2.4400 -0.1862 -1.3068
H 0.9705 0.7398 -0.3966
H -1.6713 -0.3257 -2.8102
H 1.1184 -0.4182 2.9168
C 0.1736 2.0187 1.0207
C -1.4633 -0.6662 -1.7806
H -0.6247 2.3380 0.3597
C -0.7014 -1.2411 -0.5997
O 1.7205 -0.3325 1.0005
C 0.8886 0.7253 0.6902
H 0.9835 2.7580 1.0204
H -0.3119 1.9301 1.9982
C 1.4613 0.2659 2.1255
H 0.3999 -1.6567 -2.4890
15

H 0.4351 0.8308 1.8700
H -1.8270 -2.2534 -0.1981
C 1.1344 0.5030 1.0966
H 2.1528 0.7385 1.3597
H -1.0014 -1.6197 -1.7032
H -0.8622 1.1684 -1.5482
C 0.8062 1.3299 -0.1321
H 1.0959 -0.5777 1.1237
C -1.0363 -0.3416 -0.0336
C -0.9455 -1.7236 -0.6205
H 0.6360 2.3874 0.0714
H -1.7452 -0.1331 0.7490
C -0.4517 0.6621 -0.6881
H 1.6444 1.3551 -0.8441
H -0.0353 -2.3260 -0.5025
18

H -2.1143 1.3019 1.6291
H 2.8039 0.8992 -0.8686
H 0.6176 1.6791 0.2474
C -0.5020 -0.4358 1.4746
H 1.3075 -1.6580 -1.3350
H 0.5428 0.8104 -2.7946
C 0.6510 -0.8336 0.6088
C 0.7925 0.4793 -1.8247
H -0.7796 1.2804 -0.7628
C 0.2833 1.1346 -0.6165
C 1.0066 -0.7572 -0.8262
H -0.2997 -0.5563 2.5393
C -1.5858 0.4573 1.3209
C -1.7515 -0.6978 0.5672
H -2.6557 -1.1856 0.8764
H 1.4154 -1.4257 1.0774
H -1.5580 -0.9951 -0.4295
C 1.8259 0.5029 -0.8832
18

H 1.7602 -0.1943 -2.3838
C 1.5290 0.2221 -0.3502
O -0.4124 -1.2661 0.5034
C 0.4429 1.0540 -0.8097
N -1.6810 0.9307 -3.5620
H 0.0628 -0.7014 3.2742
H -0.5260 0.6659 1.6408
C -0.5487 -0.1893 1.0580
C -0.8540 1.1837 -2.7956
C -0.5826 -0.0409 -0.3283
H -1.2552 -0.2972 -1.0727
H -0.1295 -2.3217 2.6661
N 0.0956 1.5574 -2.1674
H -1.5449 -1.3933 3.0008
H 0.5537 2.0086 -0.2837
C -0.5396 -1.3577 2.7191
N 1.5448 0.2374 -1.5604
H 2.0850 -0.0978 0.4516
20

C -0.0322 -0.3477 -0.1959
H 2.4821 -0.7770 1.1081
H -1.6219 -2.4462 -0.6767
H -2.0155 -0.2368 0.8848
H 0.1745 0.3360 2.1012
C -2.0407 -1.4619 -0.9195
C -1.5143 -0.3411 -0.0524
H -3.1157 -1.5269 -0.7925
C 0.3574 -0.4182 1.3356
H 2.3804 0.6848 -1.1243
H -1.0597 1.7367 0.1609
O 2.5274 3.1673 0.4668
C 1.6413 -0.2554 0.6529
C 2.2133 2.1209 0.2639
H -0.3164 1.4342 -1.3836
H 0.0773 -1.3668 1.7949
C 2.0084 0.8925 -0.1371
H -1.8038 -1.2399 -1.9536
C -0.7195 0.9375 -0.4949
H 0.3777 -0.8920 -1.0387
20

H 1.0436 0.2242 -2.1077
C 0.7042 -0.6019 -1.4798
H 0.6571 0.5685 2.4062
C -0.7676 -1.0255 -1.6025
O -0.4227 -2.2498 -0.8302
O -0.2873 2.5991 1.5284
C -0.0778 -1.6440 0.4624
H -1.0340 -0.2261 -2.3849
H -1.0191 -1.4169 0.9827
C 0.4098 0.5286 1.3648
N 0.7110 -0.4547 0.0842
C -0.8322 1.3429 1.0464
H 0.5635 -2.3343 1.0075
H -1.6705 1.0990 1.6958
H 1.4675 -1.3549 -1.7234
H 0.2037 2.8825 0.7380
H 2.0217 1.3079 -0.1652
H -1.1287 1.2866 0.0138
H -1.8507 -1.2315 -1.3734
C 1.3086 0.7004 0.3369
16

C -1.1079 0.7169 -1.0630
H 0.1234 -0.0184 2.1605
H 1.4265 -1.8898 0.4575
N -1.1302 -0.3259 -1.8623
O -1.6736 0.3501 -2.6955
H -0.3634 -0.9598 -1.9421
N -0.5780 -1.7455 0.3755
C 0.5470 -1.2723 0.6318
H -0.8906 1.7660 -1.1127
H 1.2997 1.4964 -0.1648
C 0.8511 0.0586 1.3406
H 1.8453 -0.0825 1.7677
O 0.6543 2.5898 1.2822
H -1.3799 0.5053 -0.0486
H -0.4923 -2.6832 0.0269
C 0.8687 1.4943 0.8462
19

N 1.0013 0.6778 -1.7582
C 0.5290 0.1557 -0.5915
H -1.2044 1.5048 -0.0633
N 0.7481 0.3188 0.8601
H 1.6392 0.3291 -2.4347
H -2.1998 -1.6279 1.5206
H 0.2954 -2.2273 1.4561
C -0.4903 -0.9459 -0.6709
C -0.2698 1.1157 0.2355
H 1.9196 1.9354 -0.6493
O -2.2327 -2.6846 -0.2088
H -1.1698 -0.8050 -1.5199
H 0.6761 2.7334 0.9779
O 0.2699 -2.0927 -0.6686
C -0.2096 -1.6929 0.6334
C -1.6968 -1.9968 0.6131
O 1.3301 1.9810 -1.4315
C 0.5390 1.7011 1.3124
H 0.5254 1.6202 2.3874
16

F 0.4426 -0.4348 1.5227
C 1.0624 1.7277 0.4133
O 2.4070 0.0787 0.7778
H 1.0614 2.7861 0.3950
C 1.3562 0.3729 -0.2826
H -0.9478 1.0027 0.1080
C -1.9445 -1.1161 -1.3591
H -1.8079 -0.1679 -1.7491
C 1.3426 0.5460 1.5910
N -1.0800 -1.6665 -0.3723
H -2.0198 -1.1446 -0.0571
H 1.6440 0.2496 -1.3156
H -2.6190 -1.7624 -1.7953
C 0.0684 0.8233 0.2124
H 1.5028 1.0967 2.4895
H -0.4684 -2.3914 -0.5785
13

C 0.8768 0.2845 -2.6194
H -0.1593 1.8872 -1.7668
C 0.2258 0.9376 -1.4458
C 0.6558 -0.0254 -0.5117
O 1.0388 1.0283 -3.5433
H 1.1460 -0.7607 -2.6976
H 0.0303 -0.2887 2.6811
H -1.1897 -0.4482 3.6135
C -0.9717 -0.6572 2.5724
O 1.4123 -0.9018 -0.1424
H -0.8855 -1.4985 1.9055
N -0.2869 0.7101 -0.2014
H -1.8927 -0.2673 2.1558
21

C -0.4920 -0.7812 0.0097
H -0.6862 1.1186 -2.6085
C -1.1871 0.4993 -1.8661
H 3.2996 -0.3030 2.6605
H -2.6772 -1.1712 -1.7418
H 2.6589 -0.5614 0.4190
N -2.4931 0.8597 -1.4795
C 1.1199 0.7064 -0.1746
H 1.6402 1.4217 -0.8153
H -2.6460 1.5198 -0.7825
H -2.8540 -0.2292 -3.2295
N 2.5945 0.2872 2.2306
C -2.4100 -0.2616 -2.2548
C -0.1237 0.2225 -0.7116
H 0.6941 -1.8973 1.2925
C 1.8505 -0.0232 0.9489
C 0.5159 -0.8146 1.2150
O 0.2982 -0.3725 2.6233
N -0.3688 0.2242 1.7532
H 2.3968 1.1684 2.6824
H -1.1307 -1.6126 -0.1710
16

H 1.9853 -1.1112 0.0081
C 1.7899 1.7840 -0.6169
C -0.0008 -0.9426 -0.5904
H 1.1139 2.1317 -1.4156
N -0.8286 -1.6101 0.3504
O 2.8888 0.4650 -1.5463
C -3.0218 -0.6172 1.1743
C -1.8824 -1.0869 0.7863
H -5.0822 0.0718 1.8062
C 1.1313 -0.4712 -0.0804
H -0.0565 -0.7704 -1.6420
N 3.1625 1.1766 -0.7207
C -4.1076 -0.1771 1.5456
H -0.0886 -2.2672 0.6580
H 1.8680 2.6252 0.0943
O 1.1288 0.7996 0.1890
17

H 0.3707 0.9697 1.4019
N -0.5361 -0.0433 -0.3015
H 2.1320 -0.5675 -0.4508
H -2.4694 0.1148 -1.7183
C 0.4252 0.2297 0.6452
C 1.3476 -0.6428 0.2488
H 0.4007 -1.3404 2.6162
C -1.9904 1.5380 -0.2374
O 0.8106 0.6045 -2.1735
C 1.3228 -1.7925 1.1076
H 1.8120 -2.6051 0.6040
H 1.5894 0.8712 -1.6910
C -0.2550 0.3234 -1.4872
H -2.3191 1.2606 0.7473
H -2.0666 2.5698 -0.5417
C -1.6650 0.5333 -1.1266
N 1.0906 -2.0233 2.3568
16

H 1.8829 1.0310 0.3920
C -0.8297 1.0158 -0.0088
H 2.6518 0.4798 -1.0355
H -1.0012 -1.6230 0.0820
O -2.8873 0.1373 -0.2873
N 2.8485 -2.2582 -0.1794
H -0.6564 2.0514 -0.1360
H -1.7764 0.5912 1.8442
C 2.0343 -1.3016 -0.3167
H -0.0779 0.0621 1.8844
C -0.9088 0.2967 1.2677
C 0.8719 -0.6081 -0.4224
C 1.9409 0.1914 -0.2937
H -1.6263 0.3184 -1.9352
C -1.7506 0.2165 -0.8562
C -0.7157 -0.6007 0.0010
16

H -1.3395 -0.9774 1.6937
C 1.3669 0.8236 0.2806
N -1.6005 -2.2204 -2.1613
C 0.0193 1.1247 -0.2456
O 0.1009 1.5320 -1.5201
C -1.1039 0.8400 0.6569
H -1.6296 1.6257 1.0855
C 0.5718 0.1133 -1.0843
H 1.2666 -0.2315 -1.7947
C -0.2892 -1.0480 -0.3286
C -1.0752 -1.5890 -1.3962
H 2.2209 1.4555 0.2002
H 0.3494 -1.8306 0.0653
O 1.3388 0.2375 1.4974
H 0.8149 0.6016 2.2135
C -1.0116 -0.4571 0.8377
15

N 0.8345 0.5677 -2.3354
C -1.0012 0.0094 0.7378
H 2.3451 1.0780 -3.5165
H 0.2252 0.8482 -1.5656
N 1.7396 -0.4341 -1.9842
H 1.7189 -0.7248 -1.0290
O -2.1276 0.7971 2.9157
H 2.8785 -0.0792 -2.1834
H -0.6057 0.9700 0.8439
N 2.1459 0.8200 -2.5709
N -1.0811 -1.2734 0.6020
H -0.9509 -0.9043 2.7458
C -1.7933 -0.3467 3.0992
N -2.0137 -0.3699 0.4427
H -2.3142 -0.9577 3.7979
20

C 0.8566 -0.1764 0.0968
H 0.2288 -1.7521 -1.8406
N 2.3044 -0.3520 0.4160
H -3.5045 1.1657 0.2350
C 0.0550 -0.6605 -1.8395
H -2.7585 1.8851 -1.2762
C 0.8430 -1.4244 1.0135
N 0.8901 0.1807 -1.4346
O 2.1713 -1.1413 1.4145
C 0.5712 1.2251 1.0050
H 0.8112 -2.3627 0.4960
H 0.1579 -1.4237 1.8418
C -2.7183 1.2783 -0.4244
H 1.0401 2.0785 0.5588
H -0.8813 -0.5091 -2.3712
C -1.5806 0.6305 -0.2556
H 0.6982 1.1952 2.0683
O -1.5944 -0.5949 -0.0237
H 2.8398 0.3199 -0.0676
C -0.4301 0.4381 0.3877
16

C 0.2004 -1.7800 0.4667
N 1.4103 -2.0257 0.8629
H -0.3434 -2.0173 -0.4617
H -1.1095 0.8534 -1.5163
O 0.3913 1.8124 -0.3918
H -0.4652 -3.3785 1.7627
H -1.5107 2.3325 -0.8660
N 0.8618 2.7568 -1.1947
N 0.1405 -0.4513 0.8352
C -0.9661 1.4220 -0.6051
N -1.6607 1.0474 0.8459
C 0.4738 -3.0250 1.2973
C -0.7889 0.3984 0.4975
H 0.4703 2.8720 -2.0962
H 1.7407 3.0640 -0.8784
H 1.1554 -3.8811 1.4419
16

O 2.0039 -0.0849 0.3237
C 2.1954 1.0975 1.0516
C -0.1982 0.5528 1.0646
H 2.7560 1.9172 0.6606
H -0.8977 1.3529 1.0425
O -0.6555 -0.8080 -1.1479
N -0.8557 -1.7346 -3.2567
O -0.0028 -0.1048 2.2581
O -0.3928 -0.7584 1.2260
H 2.3664 0.9279 2.0936
H -2.4555 -0.2684 -0.4574
C -1.9715 -1.0384 -1.0106
H -2.6566 -1.8354 -1.1222
C 1.0031 0.8513 0.2071
C -1.0928 -1.3434 -2.1869
H 0.8543 1.2767 -0.7462
12

C 0.8117 0.2912 -1.3179
N 2.5996 -0.5916 1.5863
H 0.2091 1.2341 1.2048
H -2.4172 -1.3266 1.0387
N -1.8460 -0.8160 0.5266
H -1.9304 0.6888 -0.9016
C 1.8070 -0.0416 1.0753
C -0.0177 -0.0956 -0.4298
H 0.9119 1.1680 -1.8020
C -1.4274 0.0044 -0.2957
O 0.5871 -1.0582 -1.3367
C 0.7122 0.5430 0.6520
18

H -1.9962 -0.1649 0.9583
H 0.9100 -2.2095 0.0039
C -0.5293 0.9660 -0.2351
C -0.3413 -0.5029 -0.6445
C -1.0144 -0.2049 0.6040
H -2.4437 0.2439 -1.4031
H -0.3827 -1.5871 2.0690
H 0.7573 -0.2976 2.0900
C 0.1006 -0.8619 1.4502
O -2.8193 1.0515 -1.3673
C 0.8282 -1.1359 0.1111
O -0.6225 2.1776 -0.8595
N 0.3131 2.0739 -0.0128
H 1.0988 1.8523 0.5096
H 2.8975 -0.3854 -0.0090
C 1.9105 -0.3460 -0.4175
H -0.5756 -0.9466 -1.5667
H 1.9091 0.2774 -1.2807
15

O 0.4422 1.4361 0.1005
H -0.8947 0.6839 -1.2056
H 2.0430 -0.5851 0.8317
H 0.5314 -1.3539 1.1503
C 1.0054 -0.5243 -0.9390
C -1.5070 0.4083 0.9835
C -0.3388 0.4983 -0.2517
H -1.0318 0.6720 1.9768
H -2.4994 -0.1086 0.6697
H -1.4824 -0.7470 1.1081
H 2.0116 0.4175 -2.4943
H -2.0161 1.3958 0.8415
C 1.0412 -0.7488 0.4346
H 0.6009 -1.3642 -1.5282
O 2.0947 -0.0801 -1.6780
14

H -2.2102 -0.1986 -0.3377
H -1.6128 0.8168 2.3920
C -1.4571 0.6685 1.3733
O 2.5084 -0.5103 -1.0194
C 0.8789 -0.9238 0.9375
N 0.1885 -0.1236 -0.0586
C 1.4382 -0.4924 -0.5832
C 0.1695 -0.0690 -1.5128
H 0.0918 -0.0868 -2.5501
O 1.5107 -0.4461 1.8419
C -1.4356 0.3696 0.1616
C -0.4144 0.9828 -0.7477
H -0.3071 1.9972 -0.9788
H 0.6513 -1.9845 1.0818
17

H 0.2323 -2.3321 0.6427
O 0.0548 2.0530 -0.4252
C -2.1917 0.3214 1.5195
C 1.5741 -0.9982 -0.3519
N 0.7690 -1.5571 0.4059
H -3.1704 0.0481 1.2183
H 1.1646 1.7423 1.3943
C 0.5928 1.4633 0.5460
O -1.1546 -0.2338 1.1276
H 2.6406 -1.1574 -0.2835
C 1.0269 -0.1978 -1.5176
H 1.4603 0.7456 -1.8223
C -0.3681 0.6320 0.1474
H -1.1953 -0.5958 -1.5003
H -2.1666 1.0719 2.2872
C -0.3834 -0.0794 -1.0585
H 1.1148 -0.9261 -2.3296
13

C -1.3151 0.9507 0.5910
H 1.0924 0.8145 2.3742
H 1.2447 -1.2648 -3.1202
H -1.3088 1.3517 1.5923
O -0.3202 -0.8937 0.6173
H -1.4340 -1.1881 -1.6390
C -0.1270 0.2457 0.1967
O 2.0136 0.3477 2.5562
N 0.4853 -1.2603 -2.5170
H 1.5649 -0.0354 1.7613
O -2.1767 1.1645 -0.1892
C -0.4585 -1.1715 -1.9390
O 0.7395 0.9388 -0.2845
16

H 0.1993 -2.7550 0.2292
O 0.4712 -1.1290 1.4020
N -0.4229 0.4156 0.1415
C 0.0183 0.5450 -1.6945
H -0.8757 2.0216 1.6940
C 0.5469 -1.7139 0.1479
C -0.1591 1.4503 1.0903
H -0.9162 1.0878 -1.9678
H 0.6715 2.1303 0.9324
H -0.5811 0.0007 2.5940
H -1.1899 -1.1851 -1.1499
H 1.6061 -1.6479 -0.1725
C -0.2440 0.0580 1.5485
H 0.7890 1.2866 -1.4133
C -0.3090 -0.6616 -0.7386
H 0.3956 0.0967 -2.6434
17

C -0.7770 0.3651 -0.5548
O 2.8903 -0.9033 -1.6361
H 1.8528 -1.8962 0.8500
H -2.8460 -0.2448 -0.8742
H 1.5329 1.2339 -0.0557
H -1.0406 -0.2365 1.7904
C 1.3820 -1.1798 0.3459
C -1.0183 -0.2212 0.7250
O 2.2447 -0.3122 -1.6986
C 0.2808 -0.3999 0.0576
H 0.5873 -1.5070 -0.5103
H -0.5019 0.8888 -1.4347
C 1.4688 0.3544 0.5757
H -3.1197 2.0786 0.6810
H 2.0572 0.4644 1.4539
C -2.1963 0.2618 -0.1683
O -2.7970 1.2538 0.4532
15

H -0.8571 1.8752 -1.6030
H -1.3446 -0.2959 1.5466
H 0.9646 1.6384 -1.6735
C -0.4137 0.0253 -1.9636
H -0.6497 1.0214 2.5175
C 0.5943 -1.6938 0.9180
H 1.5463 -2.0858 0.7187
H -0.3058 -2.1757 0.7201
C 1.0204 0.8102 1.2867
O 1.7683 1.6741 1.1964
C 0.5589 -0.4062 1.3136
C -0.5022 0.2921 1.8165
H -1.6493 -0.8762 -2.7731
C -0.0067 1.2266 -1.6911
N -0.7235 -1.0296 -2.3298
19

N 2.7932 1.0483 0.4934
H -2.4428 -0.6440 -2.1695
H 0.0730 -1.4329 -1.8214
C -1.9363 -0.0778 -1.4584
C 0.6951 0.4736 0.4955
H 1.4081 -1.7267 0.4521
O 1.6820 2.0418 2.2592
H 0.8337 2.4533 2.3616
H -1.8796 -2.7387 -0.5540
N -1.1892 -2.1520 -0.1824
H -1.8431 -0.3087 0.6100
O -0.1346 1.4407 0.0112
C -0.2328 -1.3093 -0.8187
H 2.9171 0.0562 0.6201
H 0.1719 2.3292 0.2315
C 1.7038 1.2520 1.1879
C 0.7242 -0.9301 0.1959
H -1.8579 0.9436 -1.6098
C -1.4858 -0.7183 -0.3040
15

O 0.4558 -1.1044 0.4432
O 0.4211 -0.6688 2.7566
C -0.9123 0.8090 -0.5234
C 0.3669 1.0312 -1.3606
H -1.5035 1.6217 -0.1138
O -1.8489 0.2630 -1.5851
C -0.4110 -0.3519 0.5713
C -0.1445 -1.2944 1.6830
O 1.4780 0.9414 -0.5114
H 1.2519 1.2349 0.3676
H -0.1362 -0.9346 -2.1432
C -0.5547 -0.0976 -1.6415
H -0.3403 -2.3135 1.8831
H 0.5748 1.6779 -2.1960
H 1.3030 -0.8138 2.3703
21

H -0.8690 1.3357 -0.5458
O 2.3059 -0.8106 -0.4076
H 3.1028 -2.0780 -1.8947
H -1.1081 -2.1835 -1.0899
H -2.0181 -0.6234 -1.1178
O -2.9657 0.6786 1.3884
C -0.0886 0.7190 -0.1123
C -0.2786 0.3899 1.3829
C 2.3724 -1.3144 -1.6425
H 1.4541 -1.4848 -2.1976
H 0.8232 1.2492 -0.2775
O -1.7666 1.9936 2.2672
O -1.1654 -0.2177 2.3290
C -1.1283 -1.1416 -0.8624
H -3.2009 0.3806 0.5557
O 0.0016 -0.6094 -0.6225
H -1.0038 2.5091 2.3694
N 2.8328 -0.0086 -1.2768
H 3.6798 0.1723 -1.7676
C -1.6541 0.8053 1.6633
H 0.6745 0.2386 1.8591
15

H 0.1637 -0.6604 1.9590
H 2.3169 -0.4124 -1.5354
H -0.6027 0.1015 -1.6982
H -2.1113 0.1062 0.6178
C -1.8381 -0.8217 1.0375
C -0.2547 -0.9329 1.0130
O -1.0718 -1.9005 0.7044
N 1.2638 1.4433 -1.0273
H -2.7086 -1.2342 1.4752
C 0.3586 1.2585 -0.0329
N 0.8510 -0.9254 -0.0231
C 1.5295 -0.0650 -0.9504
H 1.9115 2.0292 -1.3951
H 0.0475 1.7376 0.8202
C 0.1446 0.2760 -0.9648
17

O -1.5859 0.2790 -0.3194
N 1.4945 2.2981 -1.1580
H -0.4373 2.2609 -0.4644
H -0.0350 1.0741 -1.6959
C -0.4610 -0.0051 0.3307
N 0.9027 -2.3985 -0.2715
N -0.2476 -2.1710 -0.1012
H 1.4252 -0.8780 1.0309
H -1.2119 -2.4025 -0.0963
C 0.4582 -1.0458 0.5903
H 1.2196 -1.7070 -0.9759
H -0.8439 1.0452 2.0073
H -2.2794 -0.3718 -0.2850
H -0.4720 -0.5715 2.5295
C -0.4127 0.0945 1.6935
C 0.3477 1.7966 -1.0142
H 2.1388 2.7028 -1.8003
17

H 0.7937 -2.9126 0.2620
H -2.1705 2.3744 1.2760
C 0.3166 0.6864 -0.1933
H 1.1753 0.8463 -0.8041
C -1.5368 1.5843 0.9926
H 1.9331 -1.6278 0.4380
H -0.0563 -1.4118 -1.8114
H -0.0597 2.8379 0.1906
H -1.7165 0.6836 1.5130
C -0.5592 1.8882 -0.0542
H -0.9677 -1.0288 0.2627
O 0.1850 -0.7404 1.7808
C 1.0064 -1.9027 -0.0515
C 0.0060 -0.5725 0.5433
H 1.7892 -1.2422 -1.9420
H -1.0581 2.0549 -1.0276
C 0.9197 -1.5174 -1.3749
17

O 0.0305 -2.6949 -1.7569
O 0.0118 0.7286 2.6794
H -1.7598 0.4313 0.6034
C -0.3696 1.2173 -0.8955
H 1.0321 2.2722 1.8603
C 0.8200 0.5976 0.3856
H 1.8006 0.8118 -0.0656
H 0.7345 -0.4952 -1.6763
C 0.5991 1.2562 1.7630
C -0.2676 -0.1788 -1.3749
H -0.6869 -1.4257 1.1536
H 0.9977 -1.2733 1.0984
H -0.3948 -2.3257 -1.1019
H -0.7894 2.1185 -1.2892
C 0.1009 -0.7476 0.7378
C -0.8657 0.1774 0.0109
H -0.9933 -0.4697 -2.1320
18

H -1.5435 1.4861 -0.8639
C 1.0832 -0.3537 -0.1541
H -1.4758 -1.4396 -0.9856
H 1.2967 1.5752 1.8542
H 1.0325 -1.4255 -0.4595
O -0.5567 -0.3455 -2.7649
C -0.4922 0.3738 1.9221
H 1.3348 0.2666 -1.0369
N -1.3305 0.4480 2.8242
H -2.8332 -0.4876 -2.7436
C 2.0636 -0.2034 1.0015
C -1.1787 -0.5317 -1.5375
C 1.0352 0.5092 1.9405
N -1.8472 -0.5113 -2.8231
C -1.0219 0.5635 -0.5825
H 1.3312 0.1281 2.9340
C -0.1266 0.2946 0.4994
O 3.2290 -0.3469 0.9759
15

C -0.3092 -1.5356 -1.8035
H -1.5651 -2.4203 -0.3941
O -0.5748 -0.7595 0.7424
H 2.0212 1.2262 -0.2260
H -1.9225 0.2778 1.8442
H 0.3939 0.5862 2.1181
H 1.1826 2.3675 0.9661
H -1.3981 0.0079 -1.4603
N -1.1934 -2.3527 -1.2997
N -1.3866 0.3808 1.0130
O -0.5589 -0.1487 -1.8941
C 2.0020 1.9120 0.5549
O 0.6019 -2.0505 -2.4594
C -0.1892 0.2416 1.3531
H 2.8961 2.2672 0.9453
17

O 0.8069 0.7417 1.5400
H 2.1807 1.7751 2.7733
H 2.2090 2.0121 0.9282
H -0.1177 -2.0485 1.2471
H -2.3654 -2.1975 -3.5581
O 0.0982 1.8427 -1.4703
N -0.1474 -1.1165 0.8326
H 1.0268 2.8302 1.9731
H -1.9346 -1.7346 -0.0626
C -0.0796 0.9829 -0.6881
C 1.5985 1.8839 1.8332
C 0.6039 0.0220 0.3284
O -1.2304 0.1810 -0.4841
C -1.0578 -1.1820 -0.3978
H 1.4140 -0.4699 -0.2756
O -1.1653 -1.5745 -1.8358
C -1.8398 -1.9479 -2.6835
18

H -0.9364 -1.0984 2.2808
C -0.9787 -0.3966 1.4555
H 1.9158 1.0705 0.6630
C 1.1184 -0.9387 0.1176
H 1.8637 -1.4352 0.7819
H -0.0889 0.9727 -1.8154
H 1.1183 -1.6819 -0.7190
C -1.5919 -1.3068 0.2968
C 0.6020 1.3971 -1.0667
H -0.0826 1.9712 -0.4245
C -1.8716 -0.0363 -0.2735
H 1.2415 2.0442 -1.6810
H -1.0590 0.6137 1.8620
C -0.3968 -0.5789 0.0777
O -2.7260 0.6441 -0.7449
C 1.5730 0.5224 -0.2342
H -2.2069 -2.1808 0.2473
H 2.5063 0.4177 -0.8235
11

N 0.0996 1.1493 0.3478
H -0.4807 -1.9082 -0.3980
N 1.1972 1.0656 -2.7072
C 0.1396 0.1926 -0.5707
C 0.7847 0.6469 -1.7782
N -1.2760 -0.8073 2.4428
H -1.8296 -0.7072 -0.5781
O 2.1014 1.1853 1.4051
C -1.1633 -0.8529 1.3393
C -0.8410 -0.9133 -0.1130
C 1.2681 0.9491 0.6103
19

H -1.3898 2.2444 -2.3109
O 1.4770 1.7905 -1.6931
H -0.3470 -1.0450 1.8645
C 1.5604 0.7621 2.3434
H -1.4461 -2.5273 0.0172
O -0.9248 -2.6005 0.8361
H -1.6618 -0.9792 -2.0275
H 2.3979 1.4182 2.3488
O -1.0182 -0.2679 -1.9595
N 0.4839 -1.5971 -0.6206
H 1.5255 0.0965 3.1740
H 0.7730 0.7918 1.6710
C -0.0050 -1.4678 0.8904
O -0.4388 2.4219 -2.3685
C 0.3017 1.6422 -1.6152
H -1.4923 1.0901 -0.4236
H 1.0401 -1.7256 1.1495
C -0.6906 0.5744 -0.9246
C -0.1450 -0.6217 -0.3513
14

C 0.2000 -1.2398 0.1280
O -2.3455 1.1502 -1.3201
N 2.5214 0.4009 0.0946
N -1.9875 1.7548 -0.1391
H 2.7374 1.2974 -0.3124
N -0.9923 -1.1227 0.7264
C 1.4012 0.6479 0.7333
C -1.6821 -0.1175 0.1052
N -2.3766 -0.2097 -1.0100
H 1.1181 1.3608 1.4080
H 1.3222 -2.2620 -0.8532
N 0.4700 -2.3600 -0.3551
O 1.2188 -0.2668 -0.0630
O -1.6051 0.9664 0.8574
20

C 2.3817 2.0564 0.5690
H -2.4392 -1.1853 -2.9293
H -0.9012 0.7346 -0.8555
H 3.0414 1.1898 0.4468
H -2.4810 -2.8152 -2.2900
C -2.1150 -1.8163 -2.1274
O 1.8159 2.0431 1.8073
H 1.6214 2.0227 -0.2170
C 0.4158 -0.2641 0.5058
N 1.0765 -1.3078 0.3461
C -0.9310 -0.0363 -0.1063
H 3.0067 2.9343 0.4073
O -0.7935 -1.7952 -1.7340
H -1.9493 -1.9031 0.0194
H 1.7787 2.5756 2.5301
H -1.6156 1.0274 1.2721
H 0.4131 -2.0401 0.5304
O 0.9212 -0.2033 1.6003
C -1.5559 -1.3245 -0.8018
O -1.6907 0.1073 1.0267
17

H -0.0609 -1.3553 -1.3156
N 2.4324 1.0033 -2.6103
N -0.5229 -0.3008 1.7258
C 1.7523 0.7715 -1.7000
C -0.2995 -0.4466 -0.8233
C 0.5603 -1.1930 1.2462
H -2.2249 0.8049 -0.0303
N 1.5280 2.1472 1.2512
H 1.6168 -1.2635 1.0966
H -1.2992 -0.0885 2.2443
H -1.6774 0.7354 -1.6943
H 0.1309 -2.1190 1.5494
C 0.1723 0.0440 0.5714
C 0.8500 0.5628 -0.6558
C 1.0912 1.1838 0.7058
H -2.3639 -0.6732 -0.8010
C -1.6856 0.1869 -0.7601
17

H 2.9184 -0.5609 -0.8125
H -0.6967 2.4437 -0.4132
H 1.2378 -0.2072 1.7828
C 2.0127 -0.0325 -0.5086
C 0.4464 0.4208 1.4313
C -0.2162 0.4355 0.1547
C -0.5263 -1.0897 0.1949
C -1.5631 -0.8094 -0.9384
C 0.7882 -0.7816 -0.5296
H -2.4305 -0.1030 -0.8796
N -1.0730 1.6374 0.0122
H 0.0054 1.0763 2.1580
H 0.9081 -1.7375 -1.1045
H 2.1362 1.0524 -0.4101
H -1.7356 1.6528 0.7704
O -1.6229 -1.5545 -1.8993
H -0.5889 -1.8425 0.9916
15

H 0.1437 0.3946 2.4023
H -1.8040 -1.4175 -0.0732
C 0.0630 -1.8781 -0.0109
H -1.4894 -0.3323 1.1044
N 0.4917 -0.7960 0.8263
H -0.0393 -2.8754 0.3977
N 0.6562 -0.0672 1.7541
H -0.9193 1.9898 0.2884
C 0.5353 1.2107 -1.0347
C 0.9474 1.1023 -2.1875
H 0.2492 -1.9046 -1.0501
H 0.6959 2.5593 0.3938
C 0.0574 1.8577 -0.0801
C -0.9779 -1.0215 0.5001
N 1.3902 1.1785 -3.2305
14

H -0.2863 1.9552 1.2456
C 0.0878 -0.3697 -0.9988
C 2.4321 0.4758 -0.9979
O -2.9545 0.5278 1.1180
H 0.1149 -1.0454 -1.8161
C -1.8697 0.3445 1.2888
H 0.4616 -1.6569 0.8682
C 0.9779 0.5630 -0.7301
N 3.5054 0.4274 -1.2654
C -0.3251 -1.1920 0.3435
N -0.7256 -0.1372 1.2819
N 0.1355 1.0012 -1.5447
H -1.1101 -1.8733 0.1597
C -0.4438 0.9797 1.0474
12

C 0.0411 -0.9200 -0.5686
N 0.3817 1.4993 -0.5496
H -2.5353 1.3649 0.3743
C 1.8996 0.4495 0.6067
N -0.5665 -3.0300 -1.7768
C -1.7595 0.6046 0.4012
H -1.9295 -0.3742 0.7205
H 1.8844 0.3026 1.7053
N -0.5725 1.1870 0.1649
O 2.9314 0.7139 0.0693
C 0.5280 0.2294 0.0491
C -0.3027 -2.0270 -1.1962
14

H 2.7503 -1.3368 1.2932
H -2.7166 1.9995 0.4406
C -0.2838 -0.4662 0.5754
O -2.1420 1.2679 0.6649
N -0.3472 1.6671 -0.8358
H 0.1016 -0.1399 -1.8612
H 0.3338 2.2505 -1.2492
F 0.1922 -2.8764 -0.5860
C 0.3077 -1.7189 -0.1674
N 2.1807 -0.7535 0.7696
C 0.0891 0.2559 -0.8421
C -0.9777 0.9658 0.0661
H -0.5895 -0.5741 1.5994
C 1.1014 -0.5409 0.1325
18

H -0.4457 -1.3020 1.4823
H -1.2521 -1.5289 -0.1123
H 0.4590 -3.4725 0.3077
N 0.6652 -2.5050 0.1781
H 0.9771 -2.3029 -0.7792
H -0.2689 1.7078 1.2074
C -0.6098 1.0670 0.4044
H 2.7850 -0.1457 -0.6543
H 0.3323 -0.0034 -1.1520
C 2.4080 0.6305 0.0450
C -1.9008 1.4513 -0.0899
O 1.4110 0.0748 0.8190
H -2.3019 2.8643 -1.6942
N -2.3948 2.3675 -0.8035
C 0.2317 -0.0036 -0.0489
H -2.6572 0.7850 0.3474
O 2.8593 1.7355 0.1288
C -0.2976 -1.4198 0.4143
17

N 0.8802 0.8698 1.4071
N 1.9273 0.2863 1.9493
C -1.4248 -0.5078 -0.4726
N -1.5437 0.5503 0.4830
C 1.3070 -0.8655 -0.5132
C 0.8432 0.2420 0.2202
H -2.9960 0.2463 -1.4901
H 2.7628 -0.0396 1.5016
C -2.2665 0.6162 -0.7891
H 0.3335 0.6714 -1.7007
H 1.1262 -1.1369 -1.5474
O -1.2694 -0.5955 0.8707
H -1.3591 -1.3296 -1.1373
O 1.7661 -1.8773 -0.0007
H 1.5618 0.2990 2.8809
N 0.7305 0.8826 -0.8540
H -2.3791 1.6883 -0.8076
16

O -1.4455 1.8129 -0.4382
N -1.0228 -0.3429 0.7086
N -1.4859 1.9051 -3.8002
H -0.3076 -1.3224 -1.0318
H -1.7836 -0.5611 1.1907
H 0.6366 -2.0302 1.6466
H 0.4497 1.3345 0.6754
H 0.3372 0.4157 2.0602
C -1.3941 1.6678 -1.4638
C -1.4000 1.7757 -2.7485
H 2.4758 -1.8719 1.4225
C 1.2932 -0.5770 0.2281
C -0.1170 -0.6957 -0.2077
H 2.0512 -0.2743 -0.4440
C 1.4839 -1.5827 1.2169
C 0.2288 0.3465 0.9852
17

C -0.9313 -1.9876 -0.3182
C 0.3714 2.2818 0.7575
H -0.5759 -2.8897 0.2682
C 0.0304 -0.8399 -0.2202
C -0.3089 1.4127 -0.2001
O -0.9095 0.1069 -2.3317
H 1.0742 3.7871 2.3849
C -0.4843 0.2116 -1.2403
H 1.6872 -0.9106 1.1487
C 0.7833 3.0340 1.6705
H -1.3199 1.7295 -0.2400
H -0.8197 -2.3747 -1.3761
O -0.7168 -0.9922 0.8800
H 0.7118 1.7615 -0.5597
H 2.0675 -1.4460 -0.5048
H -2.0475 -1.8763 -0.2844
N 1.3880 -1.0080 0.1660
23

O -2.5377 -0.7701 -0.0208
C -1.6408 -1.4375 -0.9706
H 1.1375 2.5016 0.2204
C -0.6890 -1.2575 -2.0687
O 1.8647 1.7013 1.8701
N -1.0062 0.8322 0.1950
C 1.1615 0.5785 1.4968
C -3.0037 -1.0683 -1.2755
H -3.0987 -0.3182 -2.0506
H -0.7194 1.0207 -0.6784
H -0.8252 -0.1874 1.9161
H 3.8642 1.1124 0.7310
H 1.4993 -0.3584 1.9058
H -3.8256 -1.7801 -1.2859
H -0.8777 -1.8058 -2.9761
C 1.5321 1.5392 0.4695
C -0.3854 0.6585 1.3841
H 0.1219 -0.5610 -2.1004
C 3.8377 0.1730 0.9895
H 1.8216 1.0921 -0.4681
H -0.6055 1.5463 1.9826
H 3.9354 -0.7154 1.3583
H -1.5610 -2.4961 -0.6245
19

H 0.2206 -1.9483 -1.6065
H 0.8052 1.0827 -2.1461
H 0.6589 -0.2379 4.6852
H 0.0025 2.0318 -0.9382
C -0.1270 -1.0204 -2.0092
C -0.1578 1.2589 -1.6759
H -2.0084 -0.2028 -1.5358
C 0.3747 0.2459 0.3020
C -0.7969 -0.4858 0.2353
H -1.5964 -0.2245 0.8866
C 0.0083 -0.3323 3.9188
O -0.6851 -0.5039 3.2008
C -0.9479 -0.0492 -1.2902
H 0.0042 -0.8724 -3.0585
H -0.5352 -1.5253 0.4844
C 1.5264 0.3714 0.8259
H 2.3297 -0.2988 0.5051
H -0.8350 1.6766 -2.4148
H 1.7591 1.0346 1.6310
12

H -0.6926 -0.1026 -2.0363
N 0.7998 -0.6827 0.9966
N -1.4309 1.2760 -0.5405
C -0.0393 0.0606 0.1114
O -0.7013 0.9308 2.1893
H 1.1442 1.1466 1.8402
O -2.2179 1.9035 -1.0354
C 0.2452 0.6081 1.4835
C 0.8452 -1.0602 -0.2924
C -0.8790 0.1946 -1.0486
H 1.6502 -2.4948 -0.5013
N 1.2765 -1.7798 -1.1666
21

C 0.5242 0.8353 1.4716
H -2.5796 -0.4308 1.0406
C -0.8231 -1.3343 0.6254
C 1.0086 -1.0009 -1.5991
C -0.2812 -0.1127 -1.8577
H 0.7591 -2.0162 -1.4522
H -0.0726 2.4607 0.4269
H -1.0681 -3.1000 0.7823
N -0.3364 2.0575 1.2930
H 1.0713 0.6229 2.3765
H 0.7710 1.7397 -2.4744
C 0.6146 0.2417 -0.9214
C 1.2760 0.4991 0.2920
H 2.3258 0.5157 0.2744
C -0.8939 0.7842 1.6950
O 0.2834 1.2614 -1.8695
O -0.4670 -2.4766 0.4134
H -1.2531 -0.2455 -2.2569
H 2.0341 -0.8514 -1.8812
H -1.3791 0.9526 2.6190
C -1.5139 -0.4024 1.0025
19

C 2.0824 0.3901 2.3034
H -1.4368 0.2432 -1.3005
C 0.1692 0.1624 0.5290
H -1.0540 0.9217 2.1388
H -2.1262 0.8322 0.7480
N -0.2948 1.5332 0.1429
C -1.0932 0.7800 1.0713
H 0.5789 -2.0761 0.0439
O 0.7021 -0.9056 -1.9324
H -2.7031 -0.8579 -1.0801
C 1.2885 0.3218 1.4931
H 1.5835 -1.1087 -2.2221
C 0.8933 -0.3050 -0.7020
H -1.4720 -1.1574 -2.1701
N -2.0091 -0.4816 -1.6753
H 1.7253 0.3995 -0.7674
H 0.2059 2.3480 0.2703
H 2.8742 0.2051 2.9625
N 0.0859 -1.2450 0.1468
20

H -1.1962 -1.4095 2.3311
C -2.7096 -0.4939 1.2867
H -3.6243 -0.2700 1.6579
N 2.5548 0.1644 0.3922
C -0.7780 0.3451 -1.9030
H 2.5494 1.7111 -1.0508
C 2.4820 0.6498 -0.8774
C -1.4411 -0.5773 1.7058
H 3.4981 0.2750 0.7558
C -0.1741 -0.5799 -0.9071
H -0.4089 1.1473 0.2763
H -1.0399 0.2862 2.1988
H -0.0462 -1.5007 -1.4514
H -1.6320 0.1303 -2.5091
C 0.2728 0.2894 0.1935
O -2.0897 -0.9560 0.4104
O 1.3732 0.5774 1.0173
N 0.4049 -1.0861 0.3752
H -0.2052 1.2127 -2.1586
H 2.2102 0.0849 -1.7434
14

H -1.0752 -0.0130 1.6132
C -0.4929 -1.6172 -0.5885
H -1.7910 2.2713 0.8234
N 0.6224 -0.8596 -0.2310
N 3.0189 -0.8085 -0.7828
C -0.7228 0.5544 0.7874
H 1.8456 0.5169 0.1927
C -0.8224 1.8576 0.8883
H 0.0098 2.4658 1.0956
C -0.4342 -0.0234 -0.5482
H -0.1004 -2.6226 -0.7789
C 1.9836 -0.4262 -0.3030
H -1.5802 -1.7120 -0.6419
H -0.4611 0.4166 -1.5263
14

C 1.3111 -0.1361 2.1208
C -0.0763 -0.4234 -0.0431
O 0.3658 0.0053 1.2234
H -0.2893 -1.4417 -0.0869
N -2.1762 -0.1352 1.0109
N 2.1126 -0.2898 2.8228
C -0.9766 0.4300 0.7595
H 1.5285 -0.3555 -1.5434
C 0.5471 0.1005 -1.3747
N 0.3206 -0.3251 -2.5645
H 0.6107 1.1632 -1.2795
H 0.4638 -0.2085 -3.5087
H -2.7725 0.1069 1.7200
H -0.9691 1.5095 0.7433
19

C -0.2192 -1.8788 -0.1371
H -0.0008 -0.7222 -1.9494
C -0.4422 -1.0351 1.1199
H 0.3152 -2.7874 0.1583
H -1.4793 -0.9478 1.4494
C -0.1406 1.2975 -0.2700
C -1.0043 2.3735 -0.3011
H 1.4497 -1.7073 -1.5790
H 1.9889 0.7269 -1.0876
C 1.4301 0.0853 -0.3890
C -0.5833 1.5152 0.9855
H -1.6214 2.2052 -1.2107
H 2.1483 0.1802 0.4628
H -1.1785 -2.1574 -0.5811
C 0.6637 -1.0739 -1.1543
H 0.2708 -1.2677 1.9310
O -0.7831 1.6633 2.1708
H -0.9547 3.4146 -0.0276
C 0.1408 0.1158 0.4091
22

H -3.0752 2.5694 1.3655
H -0.7108 0.1915 -0.5545
C -0.8584 -1.2227 1.3674
H 0.6503 1.1913 -0.9879
H -1.8211 -0.8122 1.4190
H 1.5783 -1.0942 -2.4501
H -0.7139 0.3795 3.1141
C 0.7368 -0.8473 -1.8334
N 1.8026 -0.8983 0.7023
H 2.2958 -2.4824 -0.6745
C 0.3211 0.1919 -0.8121
O 0.0422 0.3857 2.5294
C -1.3561 2.0000 1.4449
H 0.6301 0.5521 -4.0965
O 0.1284 -0.9134 2.1714
O -0.9034 2.8491 1.2783
H -0.7604 -1.9418 0.6178
O -2.2710 2.6748 1.7408
H 0.9289 0.9196 -3.5261
H -0.1339 -1.0515 -2.4308
C 1.2385 -0.8274 -0.4354
N 2.2511 -1.8135 0.0504
17

C -0.1171 1.4619 1.2465
O 0.7830 -1.7350 0.4923
H 0.7246 1.6803 1.9044
C 0.0162 -0.4507 -1.6387
H -0.3179 -1.0846 2.0988
H 1.5632 -1.1552 0.6965
C 0.4533 0.6962 0.1739
O -1.2323 -0.8121 -1.1539
H -0.6146 2.2702 0.6976
C -0.2165 -0.5453 -0.1200
H -0.8135 1.0715 1.9589
H 1.2504 1.1113 -0.3801
C -0.1568 0.5604 -2.6403
C -0.5047 -1.3570 1.0705
N -0.2669 1.2023 -3.4998
H -1.4362 -1.9030 1.0249
H 0.8858 -1.0113 -1.9313
15

N 0.0305 -1.4567 0.3089
N 1.5258 1.6860 0.4898
H 0.1423 -2.2228 2.6267
N 1.2100 -1.3882 0.8975
C -0.6698 1.0947 -0.3005
N -1.3904 0.2886 -1.0037
H 1.2761 2.4993 1.0613
H 1.9590 1.8809 -0.4167
H -1.8586 -0.2446 -2.9355
H -1.0599 -1.4726 -1.9462
C -1.4383 -0.4709 -1.9817
C 0.4977 0.8751 0.3754
H 0.2825 -2.7552 2.2157
H -0.9746 2.1078 -0.3800
N 0.4678 -0.4214 0.9889
19

C 0.1191 1.0137 -0.6968
H -1.3336 -0.5630 -1.6237
H -2.8102 0.2501 0.4525
N -0.7000 -0.5832 0.6003
H -0.5814 -2.6822 0.7534
H -1.7894 0.4218 1.9529
C 0.0161 -1.7863 0.6926
C -1.8284 0.5076 0.8529
H -1.7506 1.5902 0.7127
C 1.8575 -0.8187 -1.4280
C 0.3923 0.4852 0.7219
H 2.3948 1.7407 -0.1512
H 0.8495 0.7440 1.6482
N 2.4340 -1.6087 -2.0566
C -0.9027 -0.1197 -0.7541
C 1.2742 0.0767 -0.4638
H -0.3373 1.7449 -1.3610
H 1.0696 -1.9072 0.8746
N 1.6265 1.4944 -0.7269
21

H -2.9792 0.4275 0.7277
H 2.2579 -0.2881 2.7983
C 0.5314 -0.1287 0.3415
H 1.5126 0.9967 0.2597
H -3.9635 -0.3572 -1.8096
H -1.7060 1.1937 -1.9566
H -1.7808 -1.4447 0.1299
H 4.2502 -0.1753 0.7778
C 1.9644 -0.0057 0.1138
N -2.8031 0.8349 -0.1833
C -1.5282 -1.0441 -0.8468
H 2.2343 -0.3862 -0.8403
H -1.6374 -1.7568 -1.6448
N -3.4793 0.2993 -1.2720
C 3.2293 0.0541 0.9973
H 0.1013 -0.4480 1.2603
C -1.9069 0.4213 -1.1982
C 2.8188 0.4045 2.1979
H 0.1998 0.1769 -1.6562
C -0.4375 -0.1026 -0.8386
H 3.1219 1.3285 2.6422
25

H -2.6316 -1.0721 -0.3638
C 0.4750 -0.8489 -0.7894
H 0.0017 1.5361 -0.0080
C 0.2588 1.3022 -2.5671
C 0.6954 0.4139 2.4301
H -2.6583 -0.6715 1.6851
H 0.7968 1.9799 -1.8987
C 0.1975 0.4801 -0.0220
C -0.7632 -0.5750 0.1923
H 1.7710 0.3363 2.4448
O 1.6056 -0.9803 -1.7093
H 2.3982 -0.5714 0.1906
C 0.0632 -0.2126 1.3187
H 0.9385 0.5389 -2.9357
C -2.2301 -0.7725 0.6491
H -0.0232 1.9463 -3.3802
H -0.0312 -1.6167 2.9989
H -2.6013 0.3148 0.4358
C 1.8458 -0.1769 -0.6406
N -0.1473 -0.6851 2.6680
H -0.6813 0.8501 -2.2547
H 0.3626 1.3785 2.7990
H 2.3483 0.7430 -0.9187
H -1.9659 -1.8865 0.8851
H -0.0251 -1.7505 -1.2092
15

C 0.7241 1.8820 -0.4038
H 0.5658 0.5181 1.9750
H -0.7331 -3.2246 -1.0840
N -1.0909 -0.5705 0.9649
O -0.1155 2.6366 0.0032
O -0.4068 -1.4394 -2.1570
C -0.3163 0.5597 1.3786
C 0.0762 -0.3314 0.2746
H -0.9521 1.3876 1.6150
C -0.4138 -2.2437 -1.1056
H 2.0471 0.1070 -0.3578
H -1.9324 -0.8353 1.2249
C 1.0125 0.2200 -0.5657
H 1.6236 2.3181 -0.8298
C -0.0884 -0.9843 -0.9323
15

H -0.9240 -0.4819 -1.7584
C -1.7931 0.4899 0.5834
H 1.5179 -1.7280 -1.1660
C 0.4986 -0.0959 -0.3354
H 1.8478 1.1793 -1.0830
O -2.8208 0.3830 1.0585
C 1.1284 0.3506 0.8242
O 1.2409 1.1203 -0.3985
H 1.3700 0.6143 1.7840
H 0.8485 -2.0860 0.4780
C -1.0098 1.4497 0.5576
C 0.8132 -1.4848 -0.3903
H -1.4119 -1.4689 -0.4409
C -0.7409 -0.6763 -0.7080
O -0.5646 2.4349 0.9947
16

H -0.6221 2.0479 1.0469
C -0.3344 1.0444 -0.9687
C -1.0446 1.2666 0.3848
H -1.0672 0.1509 2.0688
H -0.1052 -1.6198 -1.7106
H -1.9842 1.7704 0.0919
O 1.2050 -0.1861 1.5988
O 1.2137 -2.0004 -0.0871
C 0.5814 0.1568 -0.6257
H -0.4305 1.5024 -1.9468
O 1.4590 0.5007 0.4252
C -1.2138 -0.0217 1.0130
H 1.6286 -1.1109 -1.9278
N 1.5306 -1.3010 1.0056
H -1.6034 -1.0261 0.8595
C 0.7872 -1.1741 -1.2280
20

H -1.9242 0.8163 0.5468
H -0.7322 0.6649 -1.9202
O -0.0452 -0.1406 2.4764
C 0.9427 -0.1160 -0.7339
C -0.2126 -1.4348 -1.7170
C 0.0815 1.0814 2.7242
H 1.6781 1.7528 0.0450
H -0.7975 -1.6710 0.3249
C 0.1724 0.7378 1.3505
H -0.8481 2.0432 -0.0036
H 2.2694 0.3463 0.9357
C -1.1287 -1.1824 -0.5832
H 0.1493 1.6316 3.6201
H 1.9304 -1.5455 -2.0842
H -0.5554 -2.1750 -2.4094
H -2.1816 -1.3207 -0.7671
C 1.4028 0.7391 0.3881
O 1.2045 -1.3445 -1.4359
C -0.8961 0.9971 0.2579
C -0.5098 0.1200 -1.0152
21

C -0.7234 -0.4341 0.4026
H -0.5927 -2.9025 -0.0259
C -0.6137 2.1388 -0.8976
H 1.2237 -1.3008 -0.2232
H 0.9117 1.4921 0.8327
O -0.9251 -0.2220 -1.1039
H 0.4834 0.3826 -2.3517
N 1.1151 -1.3430 1.8946
C -0.7647 -2.0117 0.5865
H 1.4075 -2.2933 2.0540
C 0.5310 -1.1836 0.5793
H 0.4095 -1.0140 2.5483
H 1.8228 2.5453 -1.8040
H -1.2875 -2.2923 1.4971
H -0.5379 3.2225 -0.7163
H -1.6266 1.9537 -1.2575
C 1.1595 1.9593 -1.2635
C 0.4935 1.5066 -0.1476
N -1.6043 -1.1966 -0.4326
C 0.1952 0.7626 -1.3728
H -1.0771 0.2302 1.2015
18

H -0.6730 1.8865 -2.1896
O 1.3464 1.8083 0.0093
C 0.9623 1.1885 -1.0907
H 2.4915 -0.7464 -0.1919
H -0.5045 0.3684 1.6621
H -1.1069 -0.5093 1.5549
H -2.6403 -0.4851 -1.7836
H 0.2628 -1.2180 2.9771
O 1.0428 -1.3381 2.4103
H 1.5562 0.6773 -1.8138
N 0.0648 1.9962 -0.1648
C -1.0582 0.1052 -0.6093
H -1.9721 -1.7266 -0.5992
C -1.9168 -0.7086 -1.0061
N -0.2007 -0.3248 0.7888
C -0.4633 1.3135 -1.2923
C 0.9911 -0.9739 1.1441
O 1.8180 -1.3131 0.1948
17

C 0.8432 -0.0828 1.3245
H 1.8662 -2.2084 0.4936
N 0.2919 -0.9733 0.3272
O 0.6976 0.2250 -0.0521
H -1.4250 2.0004 0.9595
H -2.0753 -0.4726 -0.9018
C 1.3703 -1.5850 1.2133
O 0.8758 -1.3318 -2.6157
H 1.6855 0.5481 1.6828
O -2.2027 2.1826 -1.1541
N -1.5755 1.6438 0.0649
N -2.0176 0.3473 -0.3309
H -0.4798 1.3669 -1.8796
C -1.2448 1.2682 -1.1479
H 0.0243 0.0033 2.0564
N 1.6704 -1.1189 -2.2629
H 1.6955 -1.8129 2.2228
19

H -1.2579 -3.0599 -1.1635
H -0.1970 -0.0019 2.3115
C -1.1645 -2.0098 -1.1013
C -0.9356 0.4947 -0.1816
C -0.8617 0.7193 -1.6022
H -0.4433 1.6805 -1.8495
H 1.5310 2.1737 0.4415
H 1.0306 -1.7898 -1.1122
H -2.1130 -1.5198 -1.2333
C 0.0517 -1.5202 -0.7687
H 2.1547 -0.4995 0.6525
C 1.6711 0.2050 1.3150
H -1.2511 0.2705 -2.5147
H -1.7782 0.9463 0.3163
C 0.9217 1.5717 1.1499
H 0.3071 2.3520 1.6766
C 0.1643 0.2582 1.3245
H 2.3855 0.3337 2.1256
C -0.2154 -0.6045 0.2137
16

C 0.2180 -0.4764 0.5655
C 1.9451 -0.7221 0.1607
H -1.7982 -2.0217 0.1352
H -2.2188 2.6574 0.3346
C -1.3678 1.2623 -0.5396
H 0.2554 0.1990 1.4040
H -3.5039 1.6122 -0.3526
C -0.8483 -1.5035 0.3100
H 0.5773 -0.6313 -1.5240
H 3.9824 -1.3439 0.6937
N 3.0145 -1.0197 0.6281
C 0.8487 0.0457 -0.7036
H 1.5791 0.8475 -0.9135
N 0.1382 -1.8698 0.9463
C -2.4843 1.7510 -0.1364
N -0.3374 1.2132 -1.0085
23

H 2.6255 -0.7156 -3.0044
C -1.9693 0.4154 1.4522
H -0.3851 0.3831 2.5995
O -2.4058 -0.5979 2.3477
O -1.1808 0.9715 2.5013
C -0.1057 -1.5565 -0.0459
H -1.1021 -1.9942 -0.1408
C -0.4231 -0.1805 -0.6658
C 1.8771 -0.0489 -2.5522
C -0.9430 0.7939 0.3295
H -0.7891 -0.0773 -1.6591
H -2.9388 0.7326 1.0342
H -2.1860 -1.4434 1.9584
C 0.5423 0.5956 0.1034
N 2.0014 0.4806 0.3738
H 2.0699 -0.3379 -1.5344
H 0.7389 -1.8621 -0.6241
H 0.2098 -1.8851 0.9543
C 1.3098 1.3706 0.8469
H 1.2683 2.2754 1.3636
H 1.0257 -0.2123 -3.2187
H 1.8916 1.0609 -2.5322
H -1.1313 1.8320 0.1126
19

C 1.3850 1.9006 -1.0827
H -1.9766 -1.7006 2.4400
H 0.5901 -2.0113 0.5731
H -3.2676 -1.4051 1.2240
H -1.4653 -0.7709 -0.1396
C 0.0923 1.1756 -1.3862
H -0.8979 -0.0485 1.2995
N 0.2661 -0.1249 -0.8115
H 1.4309 2.9250 -1.3552
C -2.4657 -1.9772 1.5655
C -0.5696 -0.4587 0.3476
O 2.4281 1.1188 -1.3578
C 0.7640 -1.0165 0.1652
H 0.1009 1.0567 -2.4640
N 2.4219 1.4293 -0.0885
H -2.3369 -2.9782 1.3134
H 2.4859 2.1608 0.5598
H -0.8249 1.6318 -1.0426
H 1.8392 -0.9066 0.2400
20

H 0.2690 1.5632 1.9131
H 0.5153 -0.1848 2.0527
H -1.7583 -2.2294 -0.5146
H -1.1466 -0.8089 -2.0256
C -0.6777 -0.4846 -1.0871
H 1.6761 1.8573 0.0220
O 1.5786 -1.2600 -0.6800
O -1.7838 -0.6997 1.0794
C 0.2753 0.6234 1.3598
C -1.1787 0.4801 0.9587
H -1.7796 1.3545 0.7700
H -0.4305 -2.0560 0.6804
H -0.9889 1.6500 -1.4645
C -0.1562 0.9256 -1.4672
H 0.4945 1.1457 -2.3251
H 1.5775 -1.5854 0.2461
C -1.1347 -1.5242 0.0201
C 0.7083 -0.0689 -0.6190
H 2.4581 0.4609 0.6958
C 1.4823 0.8410 0.3852
19

C -0.2282 1.5609 -0.3580
H -1.1634 -2.0483 0.2184
H 1.0255 -2.9251 -0.5033
H 0.2378 -1.3106 1.5502
N 3.1537 1.8568 0.9734
H -1.9295 -0.2909 -1.0029
C 0.7330 -1.9063 -0.7181
C -1.3473 1.1860 0.4487
H -2.2385 1.6291 0.8123
H 0.2740 -1.7717 -1.6942
H -1.3433 0.8898 -1.9155
C 2.0955 1.4951 0.7561
H 0.0331 2.5688 -0.5696
C -0.2943 -1.4855 0.2234
N -0.3557 0.7313 1.6985
C -1.2562 0.5552 -0.8977
H 1.6974 -1.4017 -0.6864
C 0.1697 -0.3239 1.0028
C 0.7368 0.9910 0.6619
15

H -0.9714 -0.2140 -1.7307
H -0.3061 -0.8197 2.0660
H 1.1983 1.2144 1.5691
C -1.1291 -1.4934 -1.1354
H -1.4202 0.4217 1.4624
C 1.3043 0.4868 0.7683
H 2.2169 -0.0694 0.7015
H 0.8741 1.6622 -0.9011
N 0.1880 -0.3354 0.1402
O -1.9580 -2.2344 -1.0049
H -0.4541 1.9143 0.1712
C -0.6044 -0.2149 1.2647
C 0.3246 1.2300 -0.0994
C -0.0192 -0.7224 -1.3003
H 0.7564 -0.8258 -1.9715
17

H -0.0104 -2.9799 -0.6821
C 0.2418 1.9615 -0.1945
O -0.3862 2.9217 0.3517
N -1.1383 -1.6456 -0.0685
H 2.1063 1.0799 -0.4089
H 1.3793 0.7470 -2.5517
C -0.3567 0.2998 1.5341
H 0.7083 0.4824 1.6575
C 1.0362 0.9407 -0.6177
C -0.2859 -0.7114 0.0716
N 0.6409 -0.4763 -0.8288
H -0.4361 2.7425 1.3176
H -1.2575 0.7806 1.1331
O 0.8278 0.2651 -1.9463
H -1.3991 -3.9082 -0.7786
N -1.0597 -2.9277 -0.5908
H -0.6108 0.4280 2.6024
15

C -0.1009 0.2184 0.0886
N -1.4669 -3.0209 1.0890
H 2.2364 2.3412 -0.1571
O 0.5763 2.3979 -1.1883
H -1.2557 -2.0136 1.4674
C -0.7905 1.3672 0.4716
H -0.9107 -2.8507 -0.6700
C 0.6317 0.9260 -0.9283
O 1.4596 -1.7125 0.1273
N 1.3942 1.8560 -0.2763
H -0.4540 1.9700 1.3247
H 0.8498 0.4089 -1.8405
H -1.7522 1.7282 0.1261
C 0.2945 -1.2818 0.0948
C -0.7115 -2.3342 0.2708
21

C 0.5005 0.7116 -2.1534
H -1.3428 0.6372 -1.2834
C 1.4543 1.4614 0.0270
H -0.0065 -1.3184 -2.0137
H 0.9246 2.3473 -0.1730
H -0.7115 -1.9066 0.0812
C -0.5274 -1.1641 0.8495
H -1.5761 -2.0407 2.4733
H -1.1475 0.8530 1.0274
H 1.5024 1.1787 -2.2451
H -0.3920 -0.9540 3.2650
H 1.2432 0.8240 0.7960
H 2.3955 1.3722 -0.4102
H -2.3301 0.2521 1.9871
C 0.6892 -0.6132 -1.6518
O -0.7646 1.3334 -1.6088
C -0.8067 -1.2621 2.2799
O 0.5774 -1.4306 1.5286
H 1.5181 -1.0307 -1.1199
H 0.1816 0.8125 -3.1850
C -1.3815 -0.0630 1.5293
15

C -0.6255 -0.8037 0.2409
C -0.3062 -1.9342 1.0157
H -0.6171 2.7265 -0.5773
C -0.2248 0.7374 0.0849
O -0.0963 1.5228 0.8038
O -1.3039 -1.0750 -0.7276
H 1.9317 3.6708 -4.2364
N 0.0365 1.9943 -0.5629
H 2.2218 3.3284 -4.4695
H -0.8776 -3.4046 2.0152
H 0.5708 -3.8223 1.3593
N -0.0041 -3.0938 1.6485
H 0.9407 2.1434 -0.8541
H -1.0000 -0.9133 2.5576
N -0.6459 -1.0766 1.7019
17

H -0.9223 1.1005 -2.0510
H -0.7838 -2.8796 0.5704
H -0.2621 0.6322 2.3105
H -2.0051 -1.6934 0.0418
N 1.0751 1.4555 -1.1311
C -0.1901 1.7574 -1.6370
H -0.3018 2.7252 -2.0820
H -0.0551 2.0877 0.4974
C -0.0725 -0.3459 1.8370
C 0.3790 -0.0801 0.5676
N 1.1761 -1.0366 0.9198
C 0.1607 1.3235 -0.2200
H -0.5233 -1.8586 -0.9079
O -0.6599 -1.3131 2.3868
H 1.9510 1.4117 -1.5890
C -1.0355 -2.0621 -0.0319
H 2.0696 -1.2243 0.5186
16

H -1.1631 -2.1549 1.6562
O 1.6282 -2.0836 0.5938
C -0.4760 0.9070 -1.1049
C -0.4333 -1.5763 -0.4118
C 0.0418 0.8081 0.1439
H -1.8715 -0.6147 -1.6405
O -0.8028 -1.5787 0.9682
H -0.2726 2.7373 -0.8284
C 0.6476 -1.3550 0.5810
H 1.7685 2.0076 0.1944
N -0.3786 2.1180 -1.6116
H 0.8723 2.0163 1.7912
C 1.0496 1.5873 0.8525
C 0.7578 0.1341 0.8375
C -0.9521 -0.3972 -1.1548
H -0.4158 -2.5553 -0.8667
18

O -1.6848 -0.3433 1.1144
H 1.8293 -1.8912 -0.8772
H -0.5654 0.4700 -2.0706
H 0.1582 -2.0081 -2.1242
C -0.1560 -0.0576 -1.2192
C -0.2790 -0.1069 1.1801
H -2.0828 -0.1529 0.2404
H -1.3236 2.1113 0.9540
H 0.6676 2.0289 1.4670
C 1.2160 0.1631 -0.7156
C -0.3760 1.6203 1.3267
H 1.8368 1.0262 -0.8454
C -0.1402 0.7519 0.0626
O 2.0747 -0.9628 -0.7526
H 0.4498 -0.7624 1.6784
C -0.2436 -1.5111 -1.2669
H -0.7811 -2.1184 -0.5673
H -0.5998 1.7428 2.4153
23

H 2.8664 0.4265 1.1071
C 0.7625 -0.6672 0.2541
C -0.0962 -0.9146 -1.0064
C -0.4836 1.4729 0.8542
H -1.3320 -0.8709 1.6871
C 0.6804 0.5652 1.1845
H 2.2133 2.1379 0.8158
H -1.9650 -2.0471 0.5332
H -0.1837 -1.9187 -1.3989
C -1.3936 -0.3595 -0.5127
C -1.6794 -1.0262 0.6927
C 2.0382 1.1006 0.9945
H -0.8678 1.9530 -0.0292
H -1.1087 1.6621 1.6830
H 1.6478 0.4804 -1.4395
H -2.0782 0.0733 -1.8511
H 1.1668 -1.4839 0.8258
H 0.5269 0.3007 2.2431
N -1.0487 0.1682 -1.7366
C 1.4045 -0.5113 -1.0748
H -0.6112 0.6593 -2.4674
O -2.5039 0.0130 0.2277
H 2.0452 -1.2139 -1.5861
21

C -0.3522 -0.7458 0.9691
H -2.6545 0.7768 0.4381
C -0.5459 0.7139 0.8622
H 1.1213 -1.1134 -2.3548
C 2.0854 -0.9973 -0.3723
H 1.9814 0.4534 -2.1770
H -2.4280 -1.1207 1.4605
C 0.9623 -1.2222 0.5138
H -0.1579 2.3304 -1.1304
H -0.8323 -0.0178 -1.8103
N 1.2330 0.1409 -0.2226
C -1.4022 -0.9933 1.7881
H 1.0776 -2.2140 1.0130
C 0.0053 0.3831 -1.2078
H 0.0036 1.1752 1.7026
N -1.7608 0.7632 0.0048
H -0.9746 2.6384 0.0970
H -1.1958 -1.1924 2.8293
C 1.2914 -0.2489 -1.6786
H 3.1255 -1.1760 -0.3961
C -0.5826 1.6663 -0.3286
19

H -2.9866 0.7292 0.2304
H -2.3127 1.8562 -2.1056
H -0.0865 -0.4226 -1.9910
H 2.1912 -1.4367 -0.9899
H 1.9953 -1.1648 1.7515
C 1.3354 0.6447 0.7598
N -1.9585 1.8596 -1.1551
H -1.6178 -1.1616 -0.0435
H 0.8709 -2.4031 -0.2687
H -0.5011 1.5143 0.9389
C -0.1010 0.6829 0.3459
C -1.1011 -0.2215 -0.1861
H 0.2520 -1.0990 1.9076
C -2.0889 0.9715 -0.3198
H 1.5189 1.5586 1.3308
C 1.1987 -1.4213 -0.5732
C 0.2048 -0.4462 -0.9441
C 1.0955 -0.6982 1.3501
H 2.0916 0.6580 -0.0381
19

H -2.8952 0.3397 -0.2607
C 2.8166 -2.1806 1.4068
H 1.4344 -0.3381 -0.8157
O -2.4641 1.3042 -2.3928
C 1.5768 -0.3883 0.2211
C -3.0020 1.0726 -1.0929
C 1.1836 -0.2662 1.4725
O -0.5986 0.9919 -0.7677
H 0.5301 -0.9499 1.9776
H 2.3282 -2.8341 0.7126
H -2.5326 2.0531 -3.0140
H -4.0416 1.4028 -1.1651
H 1.0136 0.7226 1.8519
H 3.8790 -2.2843 1.3519
H 2.5098 -2.3969 2.3903
H -0.7407 0.0289 -0.9141
C -1.7152 1.7381 -1.1508
O 2.4978 -0.8005 1.0481
H -1.7798 2.7850 -0.8589
20

O -1.9606 2.5389 -0.8551
N -3.5728 -1.3343 1.3006
H 0.1320 2.3726 -0.7065
C 2.0161 -0.6872 -0.2371
H 1.6395 1.1815 0.9696
N 2.1551 0.4418 0.5200
H 2.9809 -0.6128 2.0457
H 0.6157 -2.1750 -0.9431
C 0.6759 -1.2316 -0.5011
H 2.5531 -1.9889 1.1821
C -1.6792 -0.4478 0.2022
C -1.5142 0.2019 -1.0518
C -0.7967 1.8622 -0.5951
C -0.8918 0.7687 0.1779
H 2.6589 -1.0583 -1.0239
C 2.4808 -0.8966 1.1480
H -2.5676 2.1427 -0.1942
C -2.7588 -0.9710 0.7484
H -1.8342 0.3669 -2.0241
C -0.3323 -0.4738 -0.1623
22

O 0.0803 -2.9369 1.9416
H 1.2859 0.9572 2.4404
H -1.9054 0.2622 -1.6975
H 1.7980 -0.2981 -0.4424
H 0.0084 2.2199 0.5320
H -0.5289 -0.3445 1.8314
C 0.9262 1.3916 -1.6834
O -1.2433 -1.6094 -1.9146
H -2.2059 -1.6176 0.0784
H -0.6340 -2.2701 -0.1827
H 0.2575 2.2423 -1.7329
H 2.5734 1.3325 1.2376
C 1.0437 0.4536 -0.5440
C 1.5385 1.1666 1.4186
C -1.1897 -1.3101 -0.2093
H -1.6396 0.5684 0.8092
C -1.1226 -0.4370 -1.4088
C 0.5013 1.2460 0.5626
H -0.7304 -2.6510 1.8901
C -0.8488 -0.1436 0.8456
N 0.1483 0.1821 -1.6360
H 1.8870 1.5960 -2.1358
21

C -0.8463 -1.2023 -1.6311
H 1.8930 0.7257 -0.8748
C 1.0377 1.1741 -0.3531
C -0.0938 0.1084 -0.9152
C 0.4615 1.6691 1.7729
H 1.4991 2.1714 -0.1733
N -1.4052 1.7496 0.2373
C -0.4366 -1.7636 0.7350
C -0.1827 1.1136 0.5016
H 1.4968 -1.0408 0.1707
H 0.9789 -1.9642 -1.0777
H 0.0869 2.6056 2.1686
C 0.5275 -1.2290 -0.3614
H -1.3942 2.7646 0.2681
H -1.5842 -1.9879 -1.2952
H -0.3165 0.7784 -1.7811
H -1.3343 -1.1002 0.7587
H -0.7013 -2.8129 0.4767
H 1.3242 1.2832 2.3316
H -0.0937 -1.8406 1.7863
H -0.9168 -1.2021 -2.7446
19

C 0.5951 1.0308 -1.2516
H 0.9764 1.8591 1.2386
C -1.0696 -0.8911 1.0278
H 0.2288 -0.9311 -1.7742
H -1.6113 0.3502 -1.3592
O -0.9786 -1.9938 1.4859
C 0.4494 -0.4411 -0.8071
H -1.4692 1.7087 -0.3933
N 0.0653 1.4838 1.2832
H 1.5167 -1.0530 0.9036
H 0.3327 -2.3884 -0.2710
H 0.8219 1.1784 -2.3139
H 1.2498 1.7203 -0.7469
H -2.0802 -0.4559 1.0551
C -0.8802 0.8238 -0.6769
H -0.7939 1.9457 1.4547
C 1.0715 -1.6761 0.1186
H 1.7299 -2.4930 0.5046
C -0.1546 0.2227 0.5219
19

H 1.8335 2.2624 0.5961
C -0.5521 -0.1912 0.3220
H -2.1879 0.9909 0.6194
H 1.1629 -2.3936 0.5576
H 0.9792 0.6709 -0.8844
H -0.1221 -0.9481 -1.7224
H 0.3858 1.7654 1.6573
H -0.6423 -0.4495 1.3873
H -0.4952 2.7078 -0.4039
H 0.8780 -2.9832 -1.0339
H 1.7698 -0.3508 0.4513
C -0.1995 -1.1700 -0.6636
C 0.3965 -2.4428 -0.2243
C 1.0748 1.5782 0.8745
O -1.2500 2.2121 -0.6762
C 0.9790 0.3152 0.1623
H -2.0834 0.4955 -1.0631
C -1.4995 0.8802 -0.2265
H -0.4277 -2.9496 0.2707
19

C -0.2391 -1.9291 0.7096
O 0.2271 1.3308 2.4883
H -2.0226 1.8595 0.4226
N -1.2632 -1.9443 1.3796
C -0.2375 0.5921 -0.6460
H -0.5167 -0.9825 -2.3260
H 0.0990 1.0622 1.6692
H 0.0940 2.6881 0.2408
H -2.2892 0.7693 -0.8799
C 1.7208 -0.5239 -0.1220
C 0.3085 -0.7939 -0.1718
H -0.0509 2.5730 -1.5321
H 1.0492 -3.7891 0.6100
C -0.1641 -0.5284 -1.4416
C -1.5211 1.3200 -0.3636
H 2.4306 -1.2196 -0.4982
H 2.0573 0.3378 0.3833
C -0.2244 2.0721 -0.5851
C 0.5423 -2.8939 0.6628
20

H 0.5866 2.1307 -1.6270
H -1.9240 2.0274 -1.4503
H -0.6822 -3.0967 -0.2566
N 0.0337 2.4215 0.3869
C 0.0289 -1.1118 -1.0075
H -0.3641 1.9837 1.1881
O 1.6944 1.1380 1.2071
H 1.9277 1.4675 0.3261
H 0.1228 -1.2282 -2.0929
H 1.1069 -2.8434 -0.2267
H -1.9484 0.3228 -1.5914
C -1.3273 1.1359 -1.1768
C 0.1058 -2.3190 -0.1217
H 1.2092 -0.2460 2.3181
H -0.4985 -2.0179 1.9986
C -0.0444 -1.4661 1.1656
C 0.7653 -0.0331 1.3426
C -0.2735 0.2267 -0.5151
N -0.5552 -0.1646 0.9196
C 0.0363 1.6724 -0.7869
14

N -1.1283 0.2669 -0.0592
H 1.4572 1.0297 1.9114
C -0.5415 0.3820 1.2478
H -0.8990 1.1257 -2.1902
N -1.3057 0.4060 -1.6556
C 0.4324 -0.9096 0.0720
C -1.0402 -0.7123 -0.9238
C 0.6089 0.5165 0.1363
H 2.3469 0.2211 -0.9836
H -1.6208 -1.6010 -0.9319
N 1.6630 -0.2189 -0.4302
N 0.6342 1.1050 1.3927
H 0.5670 -1.9237 0.3173
H -1.1741 0.3126 2.0969
14

H -0.4040 -2.2784 0.2756
N 0.6502 0.4863 -1.0720
H 1.8195 0.4787 1.8515
N 1.2983 0.7676 1.0968
N 0.3730 -1.6901 0.1216
C -0.1614 -0.4515 -0.3071
H 0.6874 1.4941 1.0169
N -2.1712 0.9219 -0.2152
H 0.7527 0.5872 -2.0371
O -2.4438 1.8133 -0.7753
C 1.1891 -0.3000 0.0764
H 2.2133 -0.4300 -0.0894
C -1.5887 -0.2465 -0.1269
O -2.2145 -1.1527 0.1842
15

C -0.1513 0.5019 -0.5132
H 0.2902 -1.7343 -0.0611
O -2.5656 -0.9889 0.6558
C -0.1629 -0.7929 0.1350
H -2.5166 1.1634 0.5573
H 4.2892 0.5818 0.2095
H -1.1361 -1.7731 1.8294
H -0.6398 1.3003 -0.9930
C -2.5439 0.2209 0.1440
N 3.5646 0.3615 -0.3797
C 2.3935 0.5586 -0.4373
C 0.9638 0.1933 -0.2070
C -1.3509 -1.0858 1.0631
H 2.5473 1.2693 -1.2041
H -2.9814 0.2239 -0.7987
16

H 0.0323 -2.1428 -0.2373
N -0.6990 0.5475 -2.3233
H 0.5316 -1.5484 1.3310
N 0.0953 -0.1562 -0.3951
H 2.7247 1.3351 0.9444
H -1.1060 -1.3636 0.9776
H 1.3776 0.9154 2.3046
H 1.9960 -0.1486 1.2006
H -1.1429 1.2466 -2.8817
H 1.0462 1.6131 0.8139
O -0.5676 1.2668 -1.0359
H -2.5417 -1.0221 -0.8370
C 1.7550 0.9155 1.2678
C -0.1375 -1.3561 0.4921
O -2.3182 -0.1334 -0.5299
C -1.0460 0.0313 -1.0917
20

H -2.3399 -1.2951 0.2906
H 0.9403 1.7615 2.7570
H -1.2448 -1.4351 2.5523
C 0.7241 0.7777 1.1995
N 0.1831 1.2312 2.3211
N -0.2512 -2.0377 0.7777
C -1.2636 -1.1655 0.3673
H -0.4670 0.9721 -3.3291
H 0.9664 1.7470 -2.5437
H 1.2367 -0.7164 2.5680
H 1.2167 1.1228 0.3741
C 0.4678 -0.1984 2.0566
C -0.1688 0.2936 -1.4924
H 0.3375 -1.8481 -1.2422
C -0.6642 -1.1180 1.7057
N -0.9189 -0.1925 -0.5930
H 1.4661 -0.7346 -1.8560
C -0.0609 1.3982 -2.4123
H -0.6708 2.2559 -2.1376
C 0.5115 -0.8184 -1.3636
16

C -2.0949 1.0947 -0.6459
C 0.3584 1.1505 -0.4732
N -0.3390 0.4360 0.7878
H 0.6785 1.1936 -1.5288
C -1.7686 0.7259 0.7240
H 2.3939 -2.6105 -0.1093
H -1.9557 1.6620 1.2617
N -2.4913 1.3680 -1.6554
H 0.3339 2.1692 -0.1383
N 1.7420 -0.5355 0.1911
H -2.4186 -0.0327 1.1502
O 1.7117 -2.5226 -0.8293
C 0.4112 -0.2323 -0.1569
H 0.1885 -2.2259 0.5392
H 2.2950 0.0177 0.8310
C 0.9550 -1.6582 0.0522
19

C -1.7971 1.7644 -2.1376
H -0.9930 -0.9604 -0.0890
H 2.2112 -2.3188 1.5316
H -1.4120 0.5454 0.6608
H 0.9513 -1.3441 3.3951
H 0.1487 -0.2419 2.2686
C 1.4143 -1.6312 1.2290
H -0.3158 -2.0740 2.3062
C -0.1342 1.0175 -1.0160
O -0.5909 1.2980 -2.4306
H 1.9102 0.6485 -0.6860
N 1.3809 -1.2484 0.0122
H 0.0296 2.0349 -0.6012
H 1.1078 -0.4227 -1.7836
H -2.5615 1.7679 -2.8996
H -2.0996 2.3622 -1.2745
C -0.7465 0.0986 -0.1079
C 0.4929 -1.2976 2.3843
C 1.0038 0.0018 -0.7618
13

N 1.4043 2.3631 2.1014
N -1.2239 1.1175 1.0082
H -0.9675 -0.7528 -1.7809
H 1.4968 -0.3664 -1.9804
C -0.5794 -0.3574 0.2561
H 1.5721 -1.1214 -0.3104
C -0.0734 0.7748 0.8485
C -0.2205 -1.0655 -1.0656
N 1.2013 -0.7769 -1.1593
H -0.2402 -2.1266 -1.1911
O -2.1555 1.6869 0.8444
C 0.7770 1.6800 1.5164
H -0.9911 -1.0554 0.9126
17

O 2.6481 0.1140 -0.5810
H -0.4487 -0.4104 -3.1193
N -2.0017 -0.8699 -0.9345
C 1.7270 0.0837 0.0232
C 0.3485 0.5726 2.3237
N 0.0546 1.6403 -0.6583
C -0.0247 -0.8842 -2.2557
H 0.1513 1.6115 2.5846
C -0.4359 -0.0339 1.1757
H -0.3250 2.0718 0.1827
C -0.0184 0.3453 -0.2305
H 0.6195 -0.0876 3.1480
H -1.4151 -0.4044 1.3655
H 0.9140 -1.3902 -2.3377
H -2.0580 -1.8452 -0.6527
C -0.6978 -0.7094 -1.0945
N 0.9622 0.1959 1.0608
14

C 2.3455 -1.7595 -0.5875
O -1.1008 3.0346 -0.1608
H -1.9656 1.1440 1.5829
O 0.4048 -1.0049 -1.5355
N -0.9623 -0.3135 0.1448
C 1.4660 -0.7191 -0.5643
H -1.1825 0.3259 -1.7926
C -1.1840 0.8480 0.9427
O 1.7074 0.3875 -0.2360
N 3.1121 -2.5666 -0.5850
H -0.3918 -0.7195 2.2661
O -0.6948 -0.4762 1.4298
C -0.5484 -0.2316 -1.1315
C -1.0057 2.0510 0.2270
19

H 1.5535 -1.4523 -1.0770
H -1.3814 -1.2194 0.9261
C -1.3919 1.2810 -0.2261
H 0.9426 -3.0103 1.2591
H 2.5670 -2.1719 1.3411
C -0.6481 -1.2470 0.1117
H 0.5679 0.2206 1.3325
H 0.2862 2.3031 -1.5869
H -0.2002 0.0301 -1.8605
H -0.9581 -2.0205 -0.5648
C 1.5855 -2.2259 0.8981
H -2.2696 1.1623 -0.8679
O 0.3851 2.6580 0.4304
H -1.7593 1.7644 0.6864
H -0.3069 3.3550 0.4248
C -0.2976 0.3676 -0.8414
C -0.0799 1.8681 -0.6577
C 1.0455 -1.4448 -0.1084
C 0.3597 -0.2179 0.3804
19

H 0.6282 -2.1055 1.2649
C -1.2629 -1.1051 0.4160
H 1.9668 -1.3767 -0.6871
C 0.1769 -1.3940 0.5933
H -1.8000 2.0069 -0.2758
H -1.1041 -0.9914 2.5505
H -1.2131 -0.3096 -1.5471
H 2.3845 2.1179 -1.1808
N -1.0500 1.3746 -0.1480
C 0.9101 -1.5245 -0.6400
C -0.6918 -0.5777 1.6506
C -0.8689 0.0689 -0.6058
C 0.2533 1.0229 -0.5590
O 1.4285 0.9295 0.0831
H -0.3723 0.4226 1.8959
C 1.3757 2.0303 -0.8095
H 0.4907 -1.8348 -1.5746
H 0.8770 2.9854 -0.7754
H -2.1288 -1.7396 0.3488
18

N 1.0573 -0.9576 0.5965
C 0.1365 -1.8393 -0.2171
N -1.3181 1.6149 -0.2732
C -0.8657 0.4556 0.3555
H -0.4141 -2.2721 0.6174
H 2.4785 0.3772 1.3937
N -0.3829 1.9190 0.4882
C -2.4689 1.2351 -0.5043
H -1.2326 -0.7215 -1.4415
C -0.4390 -0.5234 -0.7239
C 2.2895 -0.2787 0.5622
H 3.1302 -0.8098 0.1469
H 0.5499 -2.4648 -1.0026
H -1.2659 -0.0004 1.2209
N -3.4199 1.4338 -1.0152
C 1.0581 0.0727 -0.3584
H -0.2871 2.2005 1.4080
H 1.3941 0.5590 -1.2531
17

C 1.1331 -1.3812 -0.7249
C -0.9225 0.4377 0.3855
C 0.1724 0.9095 -0.6189
H -2.2389 1.2677 -1.0502
H -0.8929 1.0581 -2.1742
C -0.6332 -1.5761 1.1323
H 1.3723 -0.9359 -1.6754
C -0.0431 1.6887 0.5516
O 1.2876 1.4506 -0.0965
O -1.2519 -2.0848 1.8752
C 1.4365 -0.7104 0.5428
O 2.2029 -0.9142 1.4374
H -0.1600 2.6500 0.9715
H -1.6966 0.3688 1.1182
C -1.2051 0.9737 -1.1253
C 0.0381 -0.7829 0.1619
H 1.4013 -2.4194 -0.7112
18

C 0.9031 0.1051 1.8221
H 1.6476 -0.4082 -0.1586
C -1.0868 -0.7977 -1.6151
H 1.6998 -0.2754 2.4688
H -0.6565 -0.6600 -2.5916
H -1.9826 0.8785 -0.5225
C -1.0650 0.3382 -0.8017
C -1.6589 -2.0150 -1.0241
H -1.4047 -2.2326 0.0109
H -0.1098 -0.2128 2.0718
H -2.7541 -1.9365 -1.0729
H 2.1271 1.8650 1.9037
N 1.5034 2.3064 -0.0006
C 1.0001 0.3151 0.3499
C 1.4494 1.4924 1.1292
H -1.4140 -2.8815 -1.6441
N 0.0231 0.8600 -0.5397
H 1.7787 3.2592 0.2144
18

C 0.1432 -2.6887 -0.2802
H -1.5738 0.5348 0.9184
H -0.9551 -0.9646 2.3578
C 0.2979 2.4948 -1.7633
C -0.7669 0.8694 0.3246
N -0.5430 1.4324 -1.0840
C 0.4330 0.6537 -0.3956
H -0.3360 3.3650 -1.7176
C 0.4413 0.9858 0.9863
H 1.2704 2.7504 -1.3761
H -0.7159 -2.8253 2.4464
O -0.5454 -3.2801 -1.0521
C -0.3878 -2.0176 0.7385
C -0.6833 -1.8976 1.9261
H 1.2219 -2.7633 -0.3235
H 0.3922 2.1621 -2.7790
H 1.0330 1.0207 1.8305
H 1.2745 0.1677 -0.7571
23

C 0.4317 0.5506 0.6676
H 2.7641 0.1346 -1.3518
H 0.1201 0.7211 -1.7692
N -0.3552 -2.0412 0.5593
C 2.4848 -1.6813 -0.2731
C 0.0002 -0.7185 -0.0763
H -2.0960 3.4738 -0.5013
H 2.0873 -2.0898 0.6565
C 0.6172 -0.2200 -1.4329
C -0.9119 0.8981 1.2984
H -1.0587 -2.1736 1.2810
C 2.0357 -0.5885 -0.9709
O -2.0799 0.6805 0.6444
H 1.2644 0.2444 1.2862
H -1.9319 -1.7578 -1.0106
H 3.3207 -2.2442 -0.6926
N -1.7694 2.0028 0.8123
H 0.3795 -0.8945 -2.2512
H -0.8818 0.6690 2.3580
H 0.7628 1.4564 0.1703
H -2.2542 2.5810 1.5069
C -1.0691 -1.5347 -0.4534
O -1.8604 2.5317 -0.4577
19

H 1.9942 -0.6197 -1.3470
C -0.5586 -1.0713 2.1892
C -0.1522 0.5166 2.1117
H -1.5139 1.2554 -0.3261
H 0.1839 1.2803 2.7832
H 0.2351 1.8378 -2.0377
H -0.0262 -1.1629 3.1424
H -0.1880 -1.9730 1.6503
H -1.6127 -1.2956 2.4231
H -0.1142 -1.2259 -1.4345
C 1.9042 0.4758 -1.3956
H 2.1681 0.9794 -0.4446
C -0.4755 -0.1936 -1.5617
H 2.6603 0.7144 -2.1556
H -2.1692 -0.3511 -0.2416
H -1.0257 -0.2324 -2.5190
C -0.6176 0.0221 1.1342
C -1.2335 0.1999 -0.2380
C 0.5415 0.8437 -1.7324
23

C -0.8623 -0.9375 -0.0302
O 1.0165 2.0653 0.6237
H -2.7188 0.5502 0.4305
H 1.4399 -1.8021 0.6010
C 0.5015 1.4814 1.6532
H -0.5891 1.5299 1.7910
C -1.4850 0.7328 -1.5146
H -1.1702 -1.9657 -0.2163
H 2.0428 -0.8204 1.8244
C 1.4681 0.7499 0.5048
H 2.1578 1.0802 -0.3092
C 0.3666 -0.8617 -1.2015
H 0.9352 1.7796 2.6030
H -2.9428 -0.8995 -0.4209
H 1.3398 -0.5470 -1.5749
H -1.4500 0.3706 -2.5429
H -1.7038 1.7839 -1.4785
C 1.8909 -0.7713 0.7432
H 0.2202 -1.7965 -1.7143
C -2.1803 -0.1344 -0.2227
H -0.6158 -0.9230 1.0442
C -0.4750 0.2345 -0.7605
H 2.8137 -0.8993 0.1672
18

H 1.5291 -1.1533 1.9160
N 0.1593 0.1526 -1.3924
N 1.9979 2.2819 0.9443
H 0.5572 -0.1900 -3.3741
N 0.4400 -0.9506 -0.8550
H -1.1392 -1.4973 1.2096
O -1.4685 2.1224 0.7705
N 0.6673 -0.7180 1.7676
H 1.8315 -0.7558 -2.4268
H 0.3964 -1.8550 -0.4853
H -3.2759 1.3970 1.5248
H 0.1744 -1.6323 -2.7364
C -0.6241 -0.5764 1.2659
C 1.2330 1.5026 1.0183
N 0.2445 0.5452 1.2000
C -2.3152 1.2725 1.1556
C 0.7052 -0.7060 -2.3782
C -1.1129 0.7604 0.8756
16

H 0.5644 -1.5267 -0.9044
C 0.8445 1.0058 0.0467
N 3.0556 2.1824 0.0643
H -0.2321 -2.7646 0.0273
C -1.5891 -1.4759 -0.5239
C 2.1086 1.6210 -0.0034
N 0.2331 0.3167 0.9831
H 3.6956 2.6548 -0.5731
C -0.3045 -1.8402 -0.4397
C -0.5380 0.8640 -0.0673
H -2.1985 -0.8260 1.4176
O -2.0473 -0.9170 0.5117
H -1.4568 1.3701 0.1096
O -0.2256 0.7419 -1.2937
H -2.2402 -1.7853 -1.2895
H 0.3304 0.3790 1.9346
15

C -0.2218 -0.4290 0.1520
H -1.1319 0.5218 -1.9591
C -1.5929 0.1989 0.1262
H -0.1898 -1.4447 2.0214
O 1.0466 2.5058 -1.0931
H -2.3383 -0.5972 0.1262
C 1.0499 0.3365 0.3993
O -0.1383 -1.9280 -0.0758
H 1.3783 -1.9304 1.2608
O 2.0599 0.5769 0.9884
C 0.8066 1.2571 -0.9695
H -1.9559 1.1351 0.5801
H 1.4393 0.6383 -1.6788
C -0.6402 0.5613 -0.9869
C 0.4283 -1.4023 1.1089
13

C -1.0412 -1.1418 -0.6660
O -0.4231 -1.7488 -1.6061
H 0.2066 0.0918 1.0763
C 0.5730 0.9486 0.6247
O 0.6895 -2.5613 0.3080
C 1.8721 1.0441 0.2228
C 0.1213 -1.8429 -0.3727
O 1.6329 1.8348 1.1064
H -1.3817 1.5509 0.6934
H -2.1442 -0.1208 -1.0664
O -0.6264 1.8701 0.3810
H 2.7127 0.9220 -0.3582
N -2.1916 -0.8467 -0.3430
14

N -0.2397 1.3238 -0.3410
C 1.5485 -0.9011 1.2236
C -0.9539 -0.9316 1.4893
C 1.9611 0.0277 -0.9311
H -1.5563 1.8496 -1.7805
N 1.1555 -0.4599 -0.0108
H -2.0461 0.6397 0.1298
C 0.2651 -0.6846 0.9953
N 2.6148 0.4029 -1.8079
O -1.8731 -1.2443 1.8976
O 2.3715 -1.2681 1.9426
N -0.7769 1.3982 -1.4387
C -1.2195 0.3955 -0.4551
H -1.2509 -0.5479 -0.9131
19

H -0.5128 -1.5399 1.5140
C -1.0098 -1.3597 0.5792
C 1.2159 -0.0464 0.6465
H -1.4274 -3.0654 -0.2347
H 1.0867 2.2723 -0.8822
C -1.2888 -0.3393 -0.4331
O 1.5656 -1.0689 -2.4287
H -2.2424 0.1367 -0.1839
C 1.1042 1.6154 0.0054
C -0.0902 0.2519 0.1633
N 1.1821 0.1546 -0.8227
C -0.2831 1.6331 0.7603
H -1.2574 -0.4134 -1.5211
H -0.4857 1.6801 1.8299
N 1.6319 -0.9799 -1.3299
H 1.7854 -0.7071 1.2696
H 1.9782 1.9429 0.5835
H -1.0913 2.1883 0.2973
O -1.8611 -2.3553 0.1871
14

H 1.2233 -1.6895 0.0602
H -0.6727 -2.1511 -1.6023
N 2.0503 0.4904 2.7159
C -0.3714 1.3158 0.9551
H -0.0450 1.9305 1.7483
N 0.6573 -0.9627 -0.2781
O -2.0741 0.2459 -2.2884
O 0.2004 0.0800 -1.8781
N -0.5368 -0.1854 0.6548
C -0.3265 -1.1988 -1.2945
C -1.1003 -0.1437 -1.7180
C 1.5378 0.2663 1.8012
H -1.1636 1.7781 0.4469
C 0.6212 0.2243 0.6771
15

C -0.1114 -0.9642 0.4454
N 0.3630 2.1217 -1.4708
C -0.0514 0.8431 -1.3063
C 0.8801 -0.9752 1.4935
H -1.5550 -2.2611 -0.1697
O -0.1619 3.1057 -0.6640
N 0.0155 0.3468 -0.1424
H -0.3696 -3.3940 0.3287
H 0.0806 3.9887 -1.1111
H -0.8909 -1.3174 2.4674
N -0.3791 -0.8370 1.8169
N -0.5507 -2.3753 0.1485
H 1.3192 2.4328 -1.7367
H -0.5123 0.2403 -2.1077
O 1.9237 -0.9550 2.0082
18

H 0.2726 -2.7929 -2.1941
H 1.0033 -3.3488 -0.2284
C -1.3900 1.3438 0.5994
N 0.1976 3.0918 0.2829
H -2.2179 1.2382 -0.0701
H 0.7740 3.2849 1.0634
H -1.7105 1.3190 1.6322
C 0.5731 -3.0693 -1.1950
O -1.0051 2.6631 0.4780
H -1.1080 -0.8678 0.6180
C 0.7358 -0.1751 -0.1591
H 0.6041 2.7241 -0.5601
H 1.4439 -3.4785 -1.6898
C 0.5285 0.5042 0.8925
H 0.8413 0.8817 1.7984
C -0.6489 0.0204 0.3108
H 1.4905 -0.5138 -0.7816
H -0.3843 -2.8251 -0.7974
18

C 1.3792 1.0474 0.5042
H -1.0070 0.1459 -1.9916
N 1.7634 0.6189 -0.8581
C -1.7861 -0.3202 -0.0357
H 2.4077 1.1657 -1.3289
O -0.7115 0.4917 2.2432
C 0.2398 -1.1089 -0.6128
H -2.0687 -1.3027 0.1809
C -0.7288 -0.1676 -0.9954
H 0.5385 -2.8109 0.0792
C 0.5554 0.2772 -0.3512
H -2.2851 0.4242 0.4753
N 0.4080 -2.3512 -0.7747
C 0.0957 0.7027 1.1536
H 2.0105 1.6614 1.0555
H 0.4271 -2.7869 -1.6417
N -0.5982 1.7048 1.6122
H -0.6400 2.6087 1.2859
19

H -0.3821 -2.8885 -1.2609
H -1.1466 1.7817 -0.5730
H 1.7671 3.1619 1.5156
O 2.1218 2.5625 0.8008
C -0.7970 0.7827 -0.2606
H 0.0303 -0.0182 -2.1588
H 1.3725 0.6224 -1.2290
H 2.2378 0.8501 1.7351
C 0.2986 0.4601 0.8012
C 0.3652 0.1907 -1.1311
C -0.7367 -2.2309 -0.4502
H 1.2141 -1.4803 0.0820
C -1.9687 -0.1489 -0.2211
H -1.1631 -2.9452 0.2967
C 0.2605 -0.9914 -0.1036
H -0.1549 0.1687 1.7654
O -1.8152 -1.3738 -0.7599
H -2.9883 0.1198 0.0114
C 1.4847 1.3766 1.1401
19

H 0.6893 -2.8031 0.1081
C -1.3597 1.1467 -0.5106
H 2.0514 -2.3957 -0.9795
C 1.1206 -2.0284 -0.5219
H -0.4857 -1.5548 -1.9344
H 0.9805 -0.6110 -2.2001
H 2.3526 -0.1014 -0.0749
H -0.9332 2.6054 0.8811
C 1.4178 0.1254 0.4571
C -1.1467 1.5546 0.8498
C -2.3792 1.1457 0.1962
N 0.3695 -0.7487 -0.0585
C 0.3829 -1.1080 -1.4184
H 1.3509 1.2169 0.5040
H -0.6990 0.4003 2.5309
H 1.5056 -0.2706 1.4887
H -1.1063 1.1077 -1.5375
O -0.6856 1.2370 2.1381
H -3.4258 1.0819 0.0818
13

C 2.0228 -1.2671 0.6630
O -1.1521 -0.9737 0.6694
N 2.9998 -1.1915 1.3962
N 1.3790 -1.9251 -0.3355
N -1.7639 2.5242 -0.9376
H -1.4004 3.1660 -1.5036
C 0.7681 -1.0278 0.1278
C -0.3424 -0.2248 0.0850
H 3.7093 -0.4941 1.6113
O -0.4533 1.0770 -0.3111
H -2.4292 0.6493 -0.8726
C -1.6108 1.3028 -0.8613
H -1.7268 -1.6150 0.2690
13

N -0.1648 0.1913 -1.4500
C 0.2518 -0.1376 1.2654
H 0.4664 -1.1128 1.6369
H 2.4027 0.3673 1.1437
H -0.2808 0.4452 1.9857
H 2.5301 0.0409 -0.6000
C 0.0507 0.2786 -0.0888
C 1.8384 0.3027 0.2141
N -1.8951 -1.1945 -0.7789
C -1.3724 0.0674 -0.7743
H -2.1493 0.8285 -0.8083
O -2.6524 -1.4484 -1.6062
O 0.9746 1.3713 -0.1392
14

N -1.2995 -0.3914 -0.4622
C -1.9079 0.2356 -1.4501
C 0.1672 -0.0669 0.1868
H 2.0970 -0.3105 2.5079
H -1.6925 0.4658 -2.4764
H -1.1040 -1.5956 1.2807
N 2.1592 -0.6764 1.5585
C -0.6923 -0.8154 0.7453
H 2.7508 -0.1726 0.9089
H -0.2152 1.8885 -0.6890
N 0.9813 -0.9501 1.0296
H -2.8955 0.4528 -1.1317
C 0.3823 1.0176 -0.7091
H 1.2689 0.9186 -1.2993
16

C -0.0631 1.3959 0.4556
H 0.2704 0.6076 -2.5379
H 0.5260 -1.8626 1.4547
H 1.0454 0.8697 2.2843
N 0.6228 -0.8915 -0.7357
C -1.2351 -0.7663 0.3199
C -0.4583 0.2205 -1.8520
C -0.4167 0.2577 -0.4253
H -0.4078 2.4105 0.4060
H -1.4972 0.1250 -2.1903
C 0.4510 -0.9858 0.8351
C 0.6879 0.4993 1.3105
H -1.6932 -1.4541 -0.3841
H 2.5009 0.2030 -0.2580
C 1.5140 -0.0646 0.1298
H -1.8469 -0.5645 1.1873
17

H -1.0769 -0.1232 -3.6076
H -0.8083 -2.7005 -0.6529
O -1.1709 0.8513 1.7970
H 0.7005 0.3786 3.1744
C -0.1776 0.4688 2.5870
C -0.2502 -1.7629 -0.7201
H 0.3694 0.4805 -2.7466
C -0.1145 0.3183 1.0393
H 0.5199 1.6559 -0.4167
C -0.4670 -0.1285 -2.7747
C 0.9965 1.1273 0.4040
H 0.8257 -2.0683 -0.7642
N -0.6066 -0.6750 0.1214
H 1.3762 1.8598 1.1143
H -1.1901 0.7680 3.1178
H 1.8020 0.4760 0.0590
O -0.7281 -0.9262 -1.7312
21

H -0.0421 2.6879 0.1966
C -1.9390 0.1449 -1.4114
C -0.7962 -0.4723 -0.3928
H -1.3486 -1.1236 0.2484
H 1.1796 1.6016 0.9035
H 2.6486 -0.1280 0.1671
C 2.1241 -1.6944 1.6527
C 0.1617 0.5812 -0.6120
C 1.1359 -1.9579 0.5824
O -2.0551 1.2771 -2.1525
H 0.4042 0.8253 -1.6328
C -2.2378 1.4287 -0.7666
H -2.8693 1.1436 0.0686
C 0.3664 1.7248 0.2699
H 1.8364 -1.2438 2.5896
H 2.9544 -2.3632 1.7121
C 1.9060 -0.7975 0.4846
H 0.6909 -2.8709 0.3307
N 0.5902 -0.6189 0.0602
H -2.6121 -0.6326 -1.7178
H -2.0983 2.4882 -0.5805
16

C -0.2569 -1.6754 -1.2879
C -0.5160 -0.3339 0.5770
N -0.6027 -1.8005 0.1761
H -0.6601 -2.6381 0.7549
H 0.9615 2.8042 -0.4569
H 2.1284 1.5056 -0.2485
H -1.0608 -2.3432 -1.6456
H 0.2701 -1.4329 -2.2069
C -0.2207 1.3097 0.3519
H -1.0721 1.9507 0.4256
H -0.9149 -0.0615 2.5370
O 0.8465 1.4345 1.1675
N -1.2028 -0.5323 1.7030
C 1.0256 1.6786 -0.3237
H 0.8726 1.1335 -1.3162
N 0.4023 -0.9990 -0.2074
19

H -1.1463 0.0751 -1.7670
H 2.2020 1.7184 -1.0607
C -1.8095 -0.3052 -0.9989
C 1.9299 0.9105 0.8274
H -0.2059 0.4923 1.8653
H 0.7709 -2.0430 -0.1391
N -2.9401 -0.9844 1.7748
H 1.7211 1.6583 1.5729
H 0.5232 1.6723 -1.0915
O 0.1167 -0.2564 1.3393
H 2.9046 0.4285 0.8180
C 1.3621 1.2405 -0.5459
H -2.0067 0.4812 -0.2665
H -1.4260 -1.2544 -0.6091
H 2.0577 -1.1146 -0.9607
O 1.1524 -1.2278 -0.5742
C 0.8729 0.0252 0.2103
H -2.7864 -0.5074 -1.4330
H -3.2923 -1.0090 1.0384
15

H 2.1824 0.8641 1.3674
H -0.4308 2.1297 0.8080
H -1.4185 -1.9445 -1.9187
H 1.9400 2.7559 1.6021
C 1.6746 1.7826 1.1991
N -0.0100 0.0763 0.4666
C 0.4092 1.6020 0.3769
H 0.0266 -0.2932 1.3365
N -1.4081 -2.4237 0.2460
O 0.8446 2.1906 -0.6713
H -2.0779 -1.7351 -0.3086
C -1.1580 -2.3913 -0.9959
H 0.0237 0.2953 -1.6339
C 0.0161 0.3504 -0.6226
H -0.6140 -3.2589 -1.2517
17

H 2.2433 0.4912 -1.6421
C -1.8078 0.2132 1.1625
O 2.9982 0.7547 -1.4398
N -1.1139 -0.5078 -1.4558
H -1.7117 -0.8091 1.5785
C 1.1224 -1.4128 0.1229
H 0.8400 -1.9797 -0.7332
H -2.1020 0.8432 2.0295
O -1.2326 -0.5155 -0.3030
O 1.2242 -0.1785 0.2593
H -2.7466 0.3800 0.5977
H 1.3577 -1.9840 0.9910
O -0.4645 0.8137 1.0726
H 1.2230 1.6446 0.4298
H 0.0379 1.5921 -0.7833
C 0.4054 1.0157 0.0893
H -0.2731 -0.3611 -1.9760
10

O 0.6880 -0.5499 1.2615
C -0.7048 -1.0866 0.4965
F -1.8172 -0.9770 0.0690
H 0.3771 1.5419 -2.2221
O 0.8494 -0.1500 -1.0759
C 0.4818 0.6110 0.9057
C -0.1392 0.2217 -0.2406
C 0.2260 0.8631 -1.4603
H -0.6664 -2.0847 0.8407
O 0.7054 1.6106 1.4254
18

H 2.4472 -1.8238 -0.8909
H 3.0220 0.7325 -0.8345
C -1.9715 -0.0249 0.3695
C 1.0615 -0.3812 -2.0857
O -1.9323 0.1512 -0.8935
H -0.7950 -1.3067 1.5694
O 1.0177 0.9747 0.0309
H -2.4536 1.0676 2.3110
C 1.9881 0.4361 -0.8026
C -1.7398 0.9164 1.5116
H -2.9480 -0.5304 0.5936
C 1.7431 -1.0325 -1.0239
H 1.5199 0.1524 -2.8965
N 1.2372 -0.3534 0.1563
H -0.0097 0.0473 2.2517
C -0.8672 -0.2373 1.6330
H -1.3872 1.9263 1.3353
H 0.0677 -0.7143 -2.3346
14

H -1.8137 0.5620 -0.2975
C 0.7467 1.1981 -1.0889
N 0.1050 -0.0918 -1.3110
H -2.3328 -0.5004 1.0443
H 1.1376 -1.7571 0.0760
C 0.4881 -2.0758 0.8539
N -0.1915 -0.8270 1.1986
O 0.7292 -3.2052 1.1762
C -1.5003 -0.1562 0.4874
C -0.3644 -0.3546 -0.1266
H 0.1622 1.8703 -1.7372
O 0.4710 2.4829 0.9720
C 0.5836 1.7691 0.1723
H 1.7792 1.0856 -1.4195
19

H 2.5935 1.4421 -1.4913
H 1.8548 3.1192 -1.2944
C 1.9577 2.1167 -0.9447
H -2.6000 -1.6459 0.5840
C -1.1171 -2.3025 -1.2469
H -0.7454 0.7258 2.1377
C 1.3608 1.8063 0.2127
H 1.5281 0.1612 1.6370
C -0.5682 0.1987 1.2209
C 0.3498 -0.8092 -1.1881
H 1.2472 -0.4785 -1.6208
H -1.4990 -2.9980 -0.5684
C -1.8194 -0.8502 0.7462
C 0.8814 0.5228 0.8296
H 1.1259 2.5839 0.9312
H -1.7055 -1.3371 1.7042
H -2.3943 -0.1181 0.2118
O -0.3488 -1.8010 -1.9083
C -0.1015 -0.3363 0.0476
15

C -0.3994 -0.8227 0.0692
C 1.4095 -0.2506 -0.3647
H 2.1948 0.1038 0.3493
H 0.5094 1.6694 -0.0680
H -0.7057 -1.2651 -0.8723
C 0.1685 0.6729 -0.4595
N 0.7959 0.2079 -1.6992
N -1.3830 -0.3167 1.0115
H 0.4909 -0.8132 2.1921
H 1.7190 -1.3190 -0.4161
C -1.4021 0.9986 -0.0870
H -2.3681 -0.5091 1.2003
H 1.5441 0.6901 -2.1086
N -2.3918 1.7622 -0.2104
N -0.1819 -0.8085 1.4633
20

H 0.7044 1.1784 2.4639
H -0.3821 1.5703 1.2470
H -2.2502 0.1307 -1.5148
H -1.3250 -0.5738 1.5534
C -0.0094 0.3856 -0.8476
H -1.5457 1.5420 -0.9535
H -1.0868 -2.4656 0.4192
H 1.9746 -0.4002 1.7322
C -1.3600 0.4478 -0.9866
H -0.3449 -1.4007 -1.8659
H 1.7488 -0.4451 0.1110
C 1.1868 1.4124 -2.4540
H -0.0400 -1.2699 2.4310
N -0.3339 -1.8281 0.2029
C -0.5066 -0.9445 -0.9108
C 1.1739 -0.2577 1.0153
N 1.5811 1.4732 -3.4347
C 0.2626 0.7658 1.5760
C -0.2263 -0.7208 1.5045
O 0.7786 1.4003 -1.2886
20

C 0.0682 -0.4176 -0.5331
C 2.0440 -0.4115 -0.5148
H 2.2929 -0.9135 0.4255
H -1.0868 -0.8300 3.3649
O 0.2470 -0.6032 1.7548
C -2.1211 -0.5570 1.3421
C -0.1860 0.7109 -1.4640
C -0.7180 -0.4425 0.8900
C 0.4352 1.3595 -0.2463
O 1.3236 -1.1397 -1.2870
H 0.6809 1.3277 0.8195
H -2.7240 0.3353 1.1409
O 0.5191 0.3852 -2.6510
H -0.4960 -1.3495 -0.8393
H 2.8013 0.3325 -0.8142
H 1.2876 0.9530 -2.8282
H -1.1951 1.0070 -1.7731
H 0.5735 2.4118 -0.5453
H -2.7370 -1.4435 1.4345
C -1.0091 -0.7150 2.3242
23

C -1.4534 -2.2989 1.4455
C -1.7844 -0.7675 1.5267
C -0.0963 0.8598 0.3928
H -0.7873 -2.6616 2.2397
H 0.4645 2.8677 -1.4581
C -0.7504 0.0698 -0.7725
C 0.9046 0.7541 -0.7217
H 2.8078 1.4601 -1.2457
H -1.0399 -2.6538 0.4924
H 2.1468 0.4355 -2.5559
C 1.9059 1.0905 -1.7361
C 0.5587 1.8228 -1.7291
H 1.6061 1.4152 0.4733
C -1.0030 -0.2993 0.4451
H -2.7899 -0.3817 1.3294
H -2.4220 -2.7857 1.6117
H -1.5169 -0.4046 2.5194
H 1.1384 -1.2724 0.1548
H 2.3850 -0.2002 0.6837
H -0.4118 1.7296 0.9527
C 1.3932 -0.1800 0.2593
H -1.2080 -0.3476 -1.6729
H -0.0478 1.7484 -2.6345
20

C 0.0463 1.5752 1.0297
O -1.7634 0.7228 -1.7256
N 0.6580 -0.5885 -2.0720
C -1.5828 -0.6933 0.3042
H 1.2192 -2.1278 -0.4679
C 1.1424 1.1238 1.8627
H 2.0423 1.7272 1.8232
H -0.8181 -1.2009 0.8854
H 0.2258 -0.3344 -2.9189
H 1.3509 0.0784 2.0503
O -0.1127 1.4737 2.4398
N 0.0850 0.7264 -0.0930
H -2.2168 -0.1773 1.0190
H -0.3235 2.5559 0.7367
C -1.2114 0.3131 -0.7198
H -2.1660 -1.4663 -0.2238
C 1.0314 -0.1138 -0.7779
H 2.0581 0.2252 -0.8075
H -0.2040 -2.2986 -1.2857
C 0.5392 -1.5210 -1.0588
23

H 0.9523 -1.2546 1.1386
H 0.6377 3.1454 0.3786
H 0.9702 -2.4850 -0.8807
H -2.0787 -1.9696 0.4093
C -0.0402 -2.5642 -0.4189
H -0.0756 0.1321 -1.6898
H -1.3226 -0.0565 1.8092
H 2.0128 1.7626 -1.1275
C 1.6930 0.8787 -0.5843
C -0.2696 2.5805 0.1592
N -0.4929 1.1442 0.2715
C -1.2076 -1.5016 -0.0724
C -0.9027 -0.2413 0.8331
H -0.0303 -3.3503 0.3539
H 2.3483 0.0785 -0.9327
H 1.9040 0.9770 0.4865
H -0.5670 2.3259 2.0765
N -1.1239 2.3234 1.2312
H -0.5136 -3.1114 -1.2722
H -0.6971 2.9543 -0.7793
C 0.3173 0.6867 -0.8655
C 0.0809 -1.2769 0.5293
H -1.5946 -1.1781 -1.0538
22

H 0.3713 -0.0066 2.2210
C 0.3707 -0.0646 1.1278
O -1.8571 -0.3393 1.5352
H 2.4870 2.2319 1.4336
H -0.8353 0.0512 -2.6387
H 1.4873 3.0414 0.2892
C -0.2593 -2.0895 -0.6466
C -1.2668 -1.0277 -0.7175
H 1.6190 -1.5518 0.7690
H -2.2469 -1.5196 -0.8049
C 1.7420 2.0476 0.6463
C 0.2757 1.3559 0.6315
H 2.2263 1.4245 -0.1151
C -1.4086 0.0389 0.4077
C -0.6812 -0.9447 -2.2259
O 1.0339 -1.2959 1.4697
H -0.0999 1.7485 -0.3381
H -0.7415 -1.7855 -2.8761
H -0.2482 1.9008 1.4247
H -0.1373 -3.0999 -0.4044
H -2.0271 0.8105 -0.1229
N 0.1960 -0.9259 -1.0656
21

H 2.4749 1.6979 1.7979
H 1.1985 2.4970 0.2581
O 1.6215 1.7199 2.2845
C 0.3400 0.1116 0.9434
H -2.5511 -2.0476 -2.1082
H 0.4025 -0.3139 1.9483
H 0.3615 3.0938 1.6270
H -1.2121 -2.9101 -2.0702
C -1.4745 -1.8491 -2.0224
C 1.1004 2.3844 1.3277
H 2.3007 -0.8183 0.2839
O 1.5961 -0.1497 0.1044
H 0.7203 -1.7457 -1.8941
H -1.7529 0.0485 0.6649
H -0.9085 1.1492 -0.5574
H -1.3783 -1.0079 -2.7132
C -0.1593 -1.5753 -1.2685
H -1.3710 1.6127 1.0449
O -0.6245 -1.8876 0.0322
C -0.9800 0.7804 0.4767
C 0.2955 -0.7901 -0.1599
12

H 1.2550 0.2111 1.8491
C 1.4673 -0.8151 0.2074
H 2.3751 -1.2382 0.2783
O -0.7721 0.3813 -2.8338
N -0.5237 -0.2707 -1.9841
H 0.1304 -1.1302 1.8276
N 0.3671 -0.2638 -0.1437
C -0.6802 0.3772 -0.8077
N -1.6694 0.7847 0.0724
H -0.9603 1.5216 -0.7197
H -1.7075 0.9384 0.9769
C 0.7184 -0.4962 1.2772
15

C 0.1973 1.1929 0.2384
O 1.3533 -2.0871 1.1175
O 0.4808 -1.5687 1.3926
C -0.7952 -0.4582 -0.9777
N 1.2581 0.5387 0.7874
H -1.4044 -0.6047 0.9613
H -0.9256 1.5463 -1.7249
C -0.6880 -1.1066 0.3373
H 0.0522 2.2468 0.2099
C -0.2237 0.8053 -1.3549
H -1.4361 -0.9867 -1.6566
O 0.2914 0.8381 1.6183
H 0.5850 0.8211 -2.0905
H -0.8659 -2.1400 0.2377
H 2.1206 0.9628 0.9043
18

H 2.2635 -0.6049 0.0019
N -0.1751 -1.6484 -0.4345
C 0.0924 -0.6011 0.6339
C 1.4718 0.0628 0.3817
C -1.5406 -1.7728 -0.2387
H -1.5520 0.8149 1.2284
C -0.1208 1.5699 -0.2794
H 1.7599 2.5361 0.4885
H 0.1255 1.3873 -1.3275
H -0.6866 2.5074 -0.2436
H -2.0010 -2.7594 -0.1797
N 1.7694 0.7789 1.4898
C 1.2386 1.5741 0.5201
N 0.2123 -1.8105 -1.6241
O -2.0175 -0.5099 -0.1707
H 0.0807 -0.8538 1.7119
C -0.9633 0.4385 0.3696
H 0.0427 -1.1089 -2.3275
18

C -0.4845 0.0855 -0.8475
H 0.7445 0.8376 1.1591
H 1.6148 1.7777 -2.5898
O -0.6379 0.6629 -3.3195
C 1.1781 1.0791 -1.9112
C -0.1896 0.6465 -2.2331
H -2.0418 -0.5447 2.0115
C 1.7136 0.2791 -1.0112
C -1.1439 -0.9584 2.4502
H -1.3464 -0.5347 3.4341
H -1.1900 -1.9333 1.9603
H -0.0782 -0.8827 2.4833
C 0.6550 -0.5903 -0.3186
H -1.4432 0.0614 -1.3663
C -0.0563 0.5511 0.4958
H 0.8396 -1.6423 -0.3572
H -0.8837 1.1065 0.9233
H 2.7500 -0.0006 -0.9631
21

C 0.8498 -0.5158 -0.7454
C -0.3924 0.2455 1.2241
O -1.3036 0.7157 0.0161
H 1.0627 0.5367 -2.4256
H 1.5366 -0.3590 2.3992
N 0.1539 1.6932 1.5579
H 2.1773 -1.7218 -1.6209
H 0.3731 1.6488 -1.2849
C 0.9378 -0.4600 1.5068
C -1.1674 0.1658 -1.3408
H -0.8656 -1.8493 -1.5873
C 1.0137 -1.3679 0.4031
H -1.0140 -0.4893 1.7889
N 1.8733 -1.2278 -0.8114
C 0.3505 0.5863 -1.5701
C -1.1936 1.5108 1.1796
H -1.7466 0.6229 -2.1469
H -1.9868 2.0942 1.6040
H 0.7159 -2.4072 0.5648
O -1.5278 -1.2084 -1.2798
H 0.1529 1.7868 2.5683
19

C -1.0073 -2.4390 0.0113
H 1.6682 2.1529 0.7049
O -0.0532 0.5685 -0.0468
C -0.2475 -0.9815 -1.7123
H 0.9043 -2.3306 0.2517
H -0.2497 2.8258 1.7373
C 1.0410 -1.0787 -1.3016
H 1.7238 0.9673 -0.2643
H -0.4977 -0.0210 -2.1366
C 0.8721 1.5559 0.1533
C -0.9309 0.8260 1.9296
H 0.5251 2.3803 -0.5420
H 1.9984 -0.8827 -1.6689
H -0.7833 -1.7036 -2.2765
C 0.2182 -1.8371 -0.4582
N -1.8746 -3.1034 0.3075
C -0.2284 1.8018 1.4448
H -1.7878 1.4598 1.9403
H -1.2906 -0.1606 1.9265
23

H -1.5115 -0.0897 -1.2470
C 0.7162 0.2177 -1.0681
C 0.5116 1.6326 -1.0654
C -1.6310 -0.6452 -0.3252
O 0.3619 -1.1238 1.6720
H 2.6600 -0.7352 -0.8065
C -1.0697 0.7061 1.5582
C -0.6589 -0.3843 0.9135
H 0.5934 -0.8338 -1.0758
H -1.6075 -1.6814 -0.6616
H 1.2795 0.3909 -3.0002
H 2.0727 1.2588 0.6334
H -2.6184 -0.3678 0.0260
H 1.0002 2.5969 -1.0204
H -1.8015 0.4904 2.3294
H -1.5076 -2.4581 1.5104
H -0.8318 1.7371 1.3313
H 1.1954 -0.9666 2.0864
H -0.5354 1.9079 -1.2474
H 2.4000 -1.2390 -0.4001
N 0.9903 0.9442 -2.2883
C 1.3754 0.8872 -0.0405
H -1.3833 -2.2451 2.1858
18

H 0.1000 -3.4252 -2.7164
C 0.5303 -1.7059 -1.2857
H 1.3377 1.8573 1.0419
C 0.3846 -2.6076 -2.1415
C -0.0046 -0.1683 0.5333
N -0.5907 0.5458 1.9612
C -1.3809 0.3782 0.7825
H -2.4522 0.3588 0.8350
H 0.9789 -0.8894 -1.8251
H 0.8475 -2.2067 0.7952
H -1.1821 0.6964 -1.3534
C 0.6506 1.2291 1.6494
H 1.2105 1.0423 2.5906
C 0.4694 -1.4639 0.1018
H 0.5778 0.9523 -1.2799
H -0.7918 2.7615 0.5915
C -0.3266 0.8263 -0.6843
C -0.3585 1.8192 0.4039
20

C 1.1639 -0.9221 1.1045
H 1.7751 -0.2897 -0.7482
C 0.6026 1.2939 -2.1898
N -2.1225 0.8625 2.5146
H 1.1801 -0.5228 2.1342
H -0.0391 -2.1525 -0.2765
C -0.0225 -1.8077 0.7673
C -0.7185 1.2652 -1.3307
H -1.0742 -1.7094 0.9944
H 1.4319 1.0777 0.2750
H 0.2870 -2.5311 1.5240
C 1.0581 0.0998 -0.0138
N 1.4721 0.6685 -2.9133
C -1.9798 0.6569 1.4390
H 0.8619 2.3509 -1.8929
H -1.4829 1.9281 -1.7326
H 2.1171 -1.4681 0.9849
C -1.6457 0.5366 0.0247
H -2.5006 0.0795 -0.4392
N -0.3640 0.5836 -0.2257
14

H -1.0982 -3.6874 0.8744
O -0.6151 -1.5670 0.9331
H -2.3776 -2.4730 0.4816
H 0.1527 -2.4001 -0.9440
H 0.1183 2.7017 -1.2808
H 1.5225 1.8301 -1.2928
C 1.6129 3.2226 -0.0233
N 1.0076 2.5805 -0.9627
N -0.3330 -2.0251 -0.2171
O 0.4757 0.6250 0.5392
N -0.6672 -0.0695 0.6558
C -1.3468 -2.7181 0.5617
N 2.1502 3.3648 0.8591
N -0.6021 0.6155 -0.1844
16

C 1.3096 0.4401 -1.4121
C -1.5346 -0.8532 0.1985
H 0.6051 -1.5898 1.9142
O -0.0050 -0.9471 2.2678
H 1.4332 1.8990 0.3119
H -0.4997 0.5695 -1.6333
C -0.6455 -0.4776 1.2340
H -1.9060 1.3218 0.8451
N 1.6188 -0.0861 -0.1563
H -1.2074 -1.8518 0.0749
H 1.8449 -0.9686 0.0338
N 0.2034 1.2266 -1.6108
C 1.0564 1.1406 -0.2749
H -2.4452 -0.7800 -0.2993
C -1.4616 0.4103 0.9004
H 1.6335 0.5463 -2.3937
16

H -1.1840 1.3765 1.4461
C 0.7007 0.4719 0.4921
C 0.1898 -0.2953 -0.6707
H 2.7023 -0.6277 0.5784
H -0.2904 0.5046 -2.5909
H -1.2104 -1.5092 0.4473
O -1.6333 -0.2846 2.5509
O -0.8451 2.1402 -0.8642
C -1.2142 0.2963 1.5875
H -1.3761 1.5215 -0.9752
O 0.1760 0.0720 -1.9370
C -0.7079 -0.5424 0.4878
H 0.9161 1.5052 0.5365
C 1.0405 -1.5375 -0.4668
C 1.6725 -0.5897 0.2708
H 1.0636 -2.5017 -0.8924
21

C -0.3232 -0.6503 -0.3236
H -1.1497 0.1544 1.8497
H 0.9518 -0.2901 -2.6084
H -1.7598 2.8189 1.4364
H -2.5695 -0.8372 -0.5512
N 1.2380 -2.0263 0.1149
H 2.2777 -0.3247 -0.4182
H -0.4426 2.4777 0.2595
O -0.0103 -1.7092 0.5716
H -1.5798 -0.5351 -2.0881
C 0.5259 0.4750 -0.4368
C -0.9409 2.1940 1.1587
C -1.5998 -0.6731 -1.0104
H 1.5389 -1.6836 -2.3169
H 0.4453 1.0605 2.1656
C 1.2610 -0.6899 -0.3173
O 0.7865 -1.2483 -2.7437
H 2.0205 -2.3171 0.6536
H 1.0092 1.4007 -0.5725
H -1.0229 1.2837 3.0992
C -0.6563 1.1200 2.0779
17

H -0.3133 -0.9748 -3.1996
N 0.7737 0.8321 -0.0594
H 0.2034 0.6790 2.6972
H 2.1537 -0.9553 0.3507
H 0.4586 2.4185 -1.3306
C -0.1409 1.6223 -0.8894
C 0.0135 -0.1859 0.7600
H -0.4034 -2.4332 0.2731
N 0.4517 -1.0940 -1.2735
C 1.2415 -0.5794 -0.0663
C -0.5303 0.0612 2.1367
H -0.7357 -0.7159 2.8767
H -0.7508 1.2755 -1.7409
C -0.0109 -1.4754 0.0377
O -0.0350 -0.9744 -2.3174
H -0.8503 2.0192 -0.1619
H -1.5255 0.4805 1.9068
21

C 1.0314 -0.1025 -0.1988
N -1.5215 0.8659 0.8273
H 0.9462 -1.4135 2.3949
H -2.2358 0.9705 1.4694
O -0.9749 -1.3489 1.8303
H -1.7287 -1.1859 2.3468
H -0.8679 -1.4899 -0.5959
C 1.8692 0.6839 -1.0538
H 2.0084 1.7240 -0.8841
H -0.6993 2.1731 -1.3935
C -0.4753 0.0057 -2.1633
H 1.6121 -0.6174 0.5351
O -0.8411 -0.3799 -3.2343
C 0.0960 -0.7874 2.2879
C -0.4726 1.1632 -1.4379
H 0.2854 0.1209 2.8169
C -0.0178 -0.9365 -0.9788
H 2.0839 0.3173 -2.0281
H 0.5962 -1.6742 -1.4976
C -0.3656 0.5654 -0.0541
N -0.3282 1.3460 1.0118
21

N 1.4697 1.1009 0.5724
H -1.2807 2.6290 -0.1648
C -0.6406 1.9389 0.3329
O 2.2308 0.6725 1.3004
C -0.5498 -0.4924 0.4073
H -0.2139 -3.1612 -1.2317
C -1.1040 -2.7152 -0.9603
H 0.5151 3.4087 1.2879
H 1.1553 -1.6816 1.3580
C 0.9683 -1.2294 -0.8217
H -1.1676 0.5890 -1.4143
H 1.3043 -1.6417 -1.7037
C 0.6492 2.5786 0.6015
H -1.7748 -2.4348 -1.7096
H -1.2103 -0.8316 1.1283
C 0.7569 -1.3225 0.4698
H -1.0449 1.6445 1.2984
C 0.7054 0.0961 -0.1393
H 1.3728 2.9567 -0.0918
H -1.5055 -2.7606 -0.0064
C -0.6357 0.6561 -0.5133
13

C 0.6602 -0.4233 0.5746
C 0.5526 0.5415 1.1647
C -1.8452 -0.5773 -0.8371
H 0.6869 -0.4168 -1.2538
C 1.1292 2.4807 2.3398
C 0.7931 1.6055 1.7155
N 1.1055 -1.2611 -0.3000
H -1.6677 -1.0956 -1.6838
H -2.0968 0.4048 -0.9311
H 1.4145 3.2452 2.8463
N 0.6126 -1.5018 -1.4609
H -1.9001 -1.0404 0.0760
H 0.5551 -1.9615 -2.2501
25

C 0.7777 0.6187 1.9883
H -0.8822 -0.6442 3.0515
H 2.0983 0.8879 -2.4392
C 1.9445 0.0424 -1.8137
H -1.0926 0.7241 -1.8545
H 0.6212 1.6745 2.1653
C 0.8064 -1.2494 -3.3842
C -1.5814 0.1810 2.8231
O -1.1225 1.2680 0.4152
C 0.7470 -0.2825 -1.1715
C 0.0558 -0.8276 0.0793
H -1.6107 0.5679 3.8414
H -1.8185 1.1892 2.4377
C -1.3062 -0.1291 0.1376
H 0.2133 -1.8279 0.4515
C -0.2101 0.3174 0.9233
C 0.1506 -0.2243 -3.2935
H -2.1226 -0.6369 -0.3043
H 1.5179 -1.9542 -3.2110
H 1.7142 0.3848 1.5179
H 2.7950 -0.5659 -1.6023
H 0.8867 0.2182 2.9864
H -2.2493 -0.4039 2.1907
H -0.0931 0.5437 -3.9710
C -0.2393 0.1281 -1.9640
15

C 1.0027 -0.3264 2.2849
H 0.9637 -0.4134 -0.8467
H -1.7180 -1.3318 0.3129
C -0.4151 1.5196 -1.9103
H 0.1603 1.6301 -4.0987
C 0.2562 -0.6183 1.1468
N -0.8244 -0.8338 0.3687
C 0.1512 -0.0450 -0.2422
O 1.9446 0.1244 2.7799
H -0.5265 -1.4471 3.1211
H 0.6894 -2.4305 2.1499
H -1.1921 2.5455 -3.4634
O -0.2356 1.2820 -0.7194
C 0.1726 -1.5237 2.3223
C -0.4290 1.8683 -3.2059
15

C 0.0977 -0.5812 -2.2859
H -1.7240 0.9815 2.0191
C 0.8817 -1.1437 -2.9341
C -0.7882 0.1134 0.1825
H 1.2746 2.0568 0.3957
H 1.8723 0.4912 -0.3134
H -0.0270 -0.0062 -1.6160
H -1.2135 0.9776 -0.2855
O -0.8962 -0.6273 2.6918
H -0.9947 -0.8919 -0.0810
N 1.4756 -1.7095 -3.6401
N 0.2735 0.4494 1.0573
C -1.0240 0.2618 1.6893
H -0.4074 -1.3870 2.8524
C 1.1996 1.0151 0.2679
18

C 0.1023 0.4335 0.2431
H 1.8421 3.5199 -0.1185
H -1.3843 1.2673 -1.3153
C -0.3307 -2.0223 0.7494
O 2.3271 -1.4126 -0.6287
C 0.0422 -0.9598 -1.3844
O 2.3573 -1.9428 0.0705
H -2.6021 1.6293 1.2029
H 0.4042 -0.9153 -2.3409
H 0.7887 0.2104 1.0277
C -0.4454 -0.8993 -0.1920
H -0.2886 -1.9699 1.8156
C -1.0209 1.2795 -0.3060
C 0.3171 1.8182 -0.0969
C 1.1576 2.7444 -0.1280
H 0.1330 -2.9067 0.3537
O -1.5706 -1.3918 0.3169
O -1.8288 1.5180 0.7307
19

H 0.6937 1.8815 0.9756
C -1.5543 -0.9433 1.5670
H 0.9509 -2.1070 0.3699
H -2.4198 -0.3155 1.7578
C -0.4201 -0.0704 0.6793
H 1.5233 2.3550 -2.0208
C -0.6856 0.0716 -0.8251
C 0.4965 -1.1735 0.1332
N 0.9224 1.5549 -2.1274
H -1.4187 0.3258 -1.5500
C -1.2461 -1.1682 0.0701
H -1.6423 -2.0338 -0.4240
C 0.6834 0.5527 -1.2551
H 0.9433 0.5665 2.1571
H 0.1380 1.6476 -2.7536
H -1.3650 -1.6240 2.3999
C 0.4709 0.8952 1.2616
C 1.4805 -0.2048 -0.4324
H 2.4489 -0.2102 0.0169
20

C -0.6013 -0.3440 -2.1918
C 1.8737 -0.3160 0.4092
H 2.6947 -0.0927 -0.2338
H -2.6089 -0.6330 0.8681
H 1.8424 -1.4006 0.4680
C 1.6117 0.4273 1.5355
C -0.1875 -0.8902 -0.9118
H 0.0683 2.3980 1.4387
C -1.8347 -0.1660 0.2626
O -1.4078 1.1198 0.8027
H -0.3142 -1.8026 1.0958
C -0.1618 0.5445 -1.4604
H 0.2470 -1.8378 -1.1690
H -0.6293 -0.7418 -3.1406
C -0.1637 1.4910 0.9931
N 0.9097 0.8520 0.4984
H 1.7761 0.8250 2.4902
C -0.7036 -1.0511 0.4463
H -0.1433 1.5992 -1.4958
H -2.2676 0.0191 -0.7055
17

C -2.2096 0.7065 0.9896
H 1.0503 1.5274 0.8085
N 0.2185 1.0365 0.9293
H -1.1931 2.0878 -0.2275
C -1.1099 1.1584 0.2759
H -0.5742 -2.1106 0.8471
H 0.9705 0.9094 -1.8351
C 0.8932 -1.0025 0.0967
H -2.3893 1.1271 1.9466
C 1.2364 -0.1062 -1.7470
H 2.2693 -0.3233 -1.6087
H -2.9428 0.1353 0.4811
N -0.3822 -1.4755 0.1187
O 1.9342 -0.9464 0.9121
O 1.8577 -2.0354 0.2991
H 0.5989 -0.6502 -2.4026
C -0.2281 -0.0383 0.1161
18

C 0.3369 1.6217 -0.0852
H -1.2342 -1.0361 2.8472
H -0.5467 0.5722 2.4247
C -1.0349 -0.3393 2.0660
O 0.0470 -1.9184 0.6586
O 1.6851 -1.4272 -1.7047
H -0.1907 2.5135 0.1064
H 1.2666 -1.3804 -2.5595
C 1.2802 -0.2806 -1.0162
H -0.5907 0.1682 -1.7828
N 0.6880 -0.8986 0.0901
H 0.2929 1.5209 -2.1052
C 0.1458 0.8198 -1.2760
H -2.9834 -0.4679 0.7830
C -1.9342 -0.4229 1.0121
C -0.5716 -0.7259 0.6954
H 2.2505 0.1813 -0.8125
H 1.0936 1.4997 0.6586
21

O -1.1588 -2.5503 0.8735
C -0.0466 -0.6552 1.2641
H -2.0099 1.4092 -0.0288
H 3.1107 -0.0806 0.8637
H -0.6501 -2.6037 1.6952
N -2.4880 1.4959 -0.9075
H -2.3952 0.3403 -2.6018
H -0.6891 -1.1385 -1.6491
O -2.2955 -0.9090 -0.0582
H -0.9374 1.2559 -2.1713
C 2.1904 0.4536 1.0436
H 2.2919 0.7596 2.0612
H 3.1857 1.8497 -0.2613
H 1.1917 -0.9285 -0.2465
O 1.3408 2.2769 -0.5247
H 0.3193 -0.8965 2.2323
C -1.3598 -0.6197 -0.9824
C 2.1531 1.5995 0.0077
C -1.1035 -1.2313 0.4241
C 1.1203 -0.4811 0.7202
C -1.7700 0.6538 -1.7540
18

C 2.2849 -1.1472 0.0283
H 0.4276 -1.6591 0.8320
H -0.9532 2.0308 0.4505
N 3.3440 -1.4589 -0.2974
C -1.8589 -0.8585 -1.3180
C 0.1665 0.5434 1.4275
H 0.5556 1.9442 -0.3522
C 0.4160 -0.1237 -0.7999
H 0.8345 -0.2827 -1.7814
C -0.2075 1.3195 0.1175
C -0.8903 0.2319 -0.7266
H -0.6996 0.1324 1.8526
H -1.9950 -1.5263 -0.5351
H 0.5995 1.5779 2.2764
H -2.3205 -1.1397 -2.2055
C 0.9362 -0.8393 0.3729
H -1.8726 0.4243 -1.3215
O 1.2327 0.8312 1.9800
23

C -0.3170 0.3583 0.2887
H -2.1063 -0.5158 0.0400
H -0.2150 -2.2258 -0.2558
H 3.5438 -0.6585 0.1030
H 0.4829 -2.1938 -2.5723
C -0.4834 1.6535 0.5933
O -1.1407 -1.0847 -2.0525
C -1.7275 0.4639 0.3601
H -0.8951 2.3445 2.6097
H -3.5946 1.5220 1.3011
N 0.9357 -0.2703 0.5220
C 0.3930 -1.3562 -0.5084
H 3.5058 -0.7496 0.8641
H 0.7170 -0.4179 -2.5588
H 2.1480 -2.2882 0.3168
C -0.1720 2.3239 1.8102
C 1.5818 -1.4194 0.0918
H 1.5324 0.3933 1.0031
H -0.3915 2.3588 -0.2363
H 0.7444 2.8688 1.8982
C -2.7526 1.1250 0.8201
C 0.2153 -1.2627 -2.0511
H -2.0043 -0.9691 -2.3872
14

H -1.3965 -1.3148 0.9549
C -0.0977 -0.8124 -0.7099
C -0.6178 -1.0227 0.3816
C -0.5637 1.5047 1.2680
N 0.5922 -0.3147 0.3206
O 1.7709 1.4537 1.0746
H -0.3959 1.6015 2.3036
N -0.5259 -2.0738 -2.8417
H 2.3865 1.0895 1.6142
H 0.6047 1.5609 -0.4997
C 0.5705 1.1339 0.4792
H -0.5066 -2.9116 -3.3487
C -0.2797 -1.5198 -1.9301
H -1.5410 1.6258 0.9333
20

C -2.2428 1.6767 -2.5408
C -0.7773 -0.3552 0.2733
O 0.2347 1.2589 -1.4997
C -1.1037 1.5993 -1.2848
H -0.9875 2.6074 -0.8724
H -1.7566 -0.8085 0.2238
H 2.7588 -0.0464 1.5678
N 1.1015 -1.2705 1.1487
C -0.4172 0.1804 -1.0358
H 1.8452 -1.1591 3.6504
H 2.3016 -2.2727 -0.0157
H -0.1621 -0.6793 -1.6657
N 2.2166 -2.0758 0.9717
O 2.4812 -1.5341 3.0786
O -2.3767 1.1790 -1.3149
H -3.2753 1.6889 -2.8864
C 2.2736 -0.9729 1.8062
C -0.0509 -0.5720 1.3629
H -0.4410 -0.4971 2.3665
H -1.6222 2.0530 -3.3338
19

N 2.2477 1.2804 -0.0387
O -0.2111 2.2709 0.7298
H -1.8887 1.2567 0.5659
C 1.2022 0.6536 -0.3662
C -1.0123 1.4384 -0.0453
H 0.5802 -0.8856 1.7361
C 0.2819 -2.0122 -0.2163
C 0.0831 -0.9478 0.7843
C -0.9791 -1.9782 0.5771
H 2.2165 1.5375 0.9639
C -0.2435 0.1508 -0.2145
H -1.1772 -2.5577 1.4613
C 0.4877 0.0945 -1.5375
N -0.1003 -1.1326 -1.3708
H 0.5212 0.4705 -2.5398
H 0.9904 -2.8072 -0.3240
H -1.8397 -1.8892 -0.0744
H 0.1168 3.1476 0.9019
H -1.2758 1.9098 -0.9926
23

C 0.6366 1.9440 2.4753
H -0.5934 -3.0632 -1.9206
H 0.1205 2.8840 2.7486
H -1.9971 -0.1394 -1.1802
H 2.2212 -1.7351 -1.0745
C 1.7339 -0.8146 -1.2617
H -0.8692 -1.9691 0.3251
H 1.8478 -0.3540 -2.2006
C -0.6208 -1.4570 -0.5758
C 0.0983 0.6522 1.8305
O 1.3352 0.2151 -0.2869
H 0.2045 -1.8420 -2.7963
O -0.7225 1.8853 -0.3855
H 0.5280 -0.2972 2.1786
O -1.1813 0.4507 1.4449
H -1.3721 2.4716 1.3448
C -0.3856 -2.0037 -1.9149
H 1.4519 2.2658 1.8086
H -1.7556 -0.7101 -2.7344
C -0.8208 1.6323 0.8802
C -1.4141 -0.8869 -1.7039
C 0.6189 -0.6551 -0.4409
H 0.9359 1.5263 3.4396
17

C 0.3547 -0.2644 1.1690
N 0.1879 0.9928 1.8958
C -0.4318 -0.6936 -0.7823
C -1.3163 -0.1223 0.2997
H 1.9848 -0.3013 -0.2633
C -0.0807 0.6271 -1.3413
H -1.7358 -0.2276 1.3067
H 0.4128 0.8039 2.8956
H -0.6578 1.5363 -1.2138
C 1.0154 -0.8111 -0.1008
H -2.2807 0.1661 -0.1703
H 1.2379 -1.8957 -0.1499
O 1.1705 0.3992 -3.4234
H -0.5397 1.7281 1.8318
C 0.7290 0.4663 -2.3972
H 0.7382 -0.9844 1.9445
H -0.7885 -1.4193 -1.5006
16

H -0.1286 0.2709 -2.6463
H 1.3558 1.9778 -0.3817
C -1.8175 -0.3721 0.2339
C 0.6042 0.1333 -0.6421
C -0.3008 -0.4180 0.2978
O 1.7572 -0.0953 -2.9507
H 0.4460 1.5176 1.1128
H 0.0374 -0.6515 2.4118
C 0.1552 -1.0898 1.4148
H -2.1664 -0.1551 1.2721
C 0.8467 0.0472 -2.1534
H 1.9702 0.7231 0.8644
C 1.1024 1.1516 0.3134
H 0.5128 -2.1156 1.4226
H -2.1619 -1.3499 -0.1457
H -2.2127 0.4258 -0.4236
15

C 1.0637 -1.6050 0.0422
N -0.4204 2.0217 -1.0699
H -0.8653 -2.4406 -0.1758
C -0.6033 -0.4875 0.8647
C -0.9414 0.7203 -1.4099
H 1.6349 -2.4758 -0.2203
C -0.4431 1.8479 0.3000
H 0.4433 2.1001 0.9103
N -1.5554 0.3048 -2.3364
H -0.5446 -0.3335 1.9022
H -1.3403 2.0886 0.8878
C -0.0923 -0.0368 -0.3785
C 1.5361 -0.3610 0.2452
O 2.5410 0.1445 0.5783
C -0.4129 -1.4877 -0.1398
19

C 1.8830 -0.8397 -0.4450
H 0.2175 -1.8074 -1.2517
O -2.4899 2.2486 1.2486
H 2.3778 -0.0099 -0.9039
H -0.6945 -1.9037 1.3288
C -1.1699 0.2163 0.3729
O 0.9714 -0.5814 0.4525
H 0.8983 1.5344 -1.2100
H -0.0389 1.7310 1.3585
C -0.3565 1.2743 0.4622
O 2.8425 -1.7568 -0.0510
N 0.0090 1.6709 -0.9448
H -1.9719 1.4767 -1.3547
O -0.4432 -2.3597 0.5124
H 2.4052 -2.6008 -0.1309
C 0.5126 -1.5992 -0.2493
H -1.8855 2.6168 0.7432
C -1.2509 1.1740 -0.6772
H -1.8161 -0.4842 0.7394
20

H 0.2767 4.4646 0.7673
H -2.3145 -0.6715 0.5037
C 0.1256 -2.0982 0.6033
H -0.3250 1.2990 -1.8310
C 1.1934 0.0173 -0.0548
H 1.2025 -0.3881 -1.0692
H 1.6778 -2.4629 -0.5914
C -0.1319 -0.5627 0.5298
C -1.4933 -0.4325 -0.1537
H -1.4853 -0.9927 -1.0835
H 1.9429 -0.3573 0.6131
O -1.8109 1.0790 -0.4908
C -0.2441 2.6014 -0.2074
O 0.7308 -2.6431 -0.5838
H -0.8203 -2.6207 0.7083
C -0.6960 1.6288 -0.8800
H 1.6478 0.9952 -0.2041
H -0.2872 -0.1255 1.5146
C 0.1220 3.5575 0.3933
H 0.6889 -2.2878 1.5160
16

H 2.2985 1.4281 0.0051
C 1.5091 1.7903 0.5254
H -2.2810 -1.3416 -0.4270
C -1.3127 -1.5616 -0.9808
N 0.7509 2.6011 -0.2145
O 1.1790 0.6364 2.4847
H 0.0143 -1.7377 0.7534
H -1.9116 -1.2977 -1.8855
H 0.4481 -0.2302 -0.9036
H -1.5528 -2.6446 0.8667
C -0.9292 -1.9512 0.4011
H 1.3497 2.8828 0.8113
O -0.2916 -0.5165 -1.3287
N 1.6491 1.2015 1.7854
H 0.1179 3.2686 -0.3910
H -1.0377 -2.5276 -1.5019
9

H 0.9141 1.5539 1.0746
H -0.4344 1.4326 2.0865
H -0.1427 0.1835 2.1020
N -0.1581 -1.3463 -3.3896
N -0.9089 -0.9848 0.2203
C 0.2157 0.8169 1.2874
N 0.4146 -0.4565 -1.1827
N 0.0206 -0.2169 0.0706
C 0.0789 -0.9824 -2.2692
21

C 1.1629 1.4252 -1.9898
H 1.4869 2.3226 -2.5384
H 0.3772 1.0276 1.9826
H -2.2802 0.3802 1.8172
H -2.3969 -0.8830 0.7633
H -0.7350 -0.9041 -2.0551
C 0.5329 0.6329 0.9697
C -0.1809 -1.9934 1.0337
C 0.7256 0.1997 -1.0766
H -1.3933 0.5171 -1.0837
H 0.4212 2.0343 -1.4902
C -1.7133 -0.5101 1.5702
H 1.8229 0.7568 -2.5267
C -0.5666 -0.1065 -1.3660
C -0.3525 -0.6462 1.0807
H -0.2656 -2.5367 0.0935
H -1.3973 -0.7152 2.6399
C 1.5632 0.0569 -0.0331
H 2.6230 -0.0607 -0.1863
H 0.5328 1.6246 0.5089
H 0.0330 -2.6220 1.8862
