23

O -107.0107 -387.2867 -364.9363
O -109.6987 -197.9361 -199.0009
H -74.5407 -193.2490 -164.5660
F -68.8615 16.0964 -20.4626
C -50.3310 126.9581 173.5105
N -88.8579 137.8108 134.2812
N 55.5481 67.7561 68.1479
C 74.0968 76.7100 -2.5239
C 40.7181 69.9004 123.6209
H -210.2619 -312.5082 -131.3416
N 20.6946 -57.7600 7.6534
C 29.3302 -2.9375 -58.4340
O 109.4931 99.6561 -83.2795
O 210.6531 -2.9987 -24.1206
N -119.8738 -176.7736 180.0423
N -40.5845 -151.9886 -99.9196
O 21.9817 393.4201 77.8129
N 322.4895 513.7078 355.5323
H 410.3047 369.6939 463.2367
H 200.4866 -477.7636 -50.8523
F -109.1086 -316.3489 -339.8038
O -595.0373 133.5152 -488.1129
C 78.3699 272.3260 443.5160
16

C 39.0435 21.1794 -25.6976
N 21.1359 12.5557 -12.9427
H 5.2977 9.0634 -3.5730
F -6.9796 -1.6950 5.9716
H -27.0884 -14.1634 13.5970
N -31.0775 -16.5866 10.6688
N -16.6317 -12.3652 13.9645
C -13.9047 -12.6980 6.1146
O -1.9716 -0.9510 -4.9371
H 48.5352 20.5110 -28.5758
H 48.9478 25.4771 -22.1188
N 37.2166 16.5121 -16.2640
H -1.5977 5.1406 -0.5523
N -20.9555 -6.6317 10.5770
O -37.5001 -21.2092 27.9811
H -42.4702 -24.1391 25.7867
16

O 55.8215 -4.5290 27.5972
C 29.5265 -4.2729 8.1685
N 14.7533 -2.6024 7.5004
N -9.9325 -1.2520 -2.0683
F -37.7587 3.7782 -21.9010
N -38.9595 5.9359 -27.6515
O -25.0786 14.9729 -19.2327
F -12.9133 6.8053 -13.3272
C 5.0571 0.5115 -0.9887
F 56.8454 -14.9138 30.7343
H 64.3720 -9.3134 37.7324
H 42.1774 -2.1766 20.3049
N -0.3145 3.6354 -11.2971
H -28.8497 1.4510 -3.3535
H -57.5912 3.7943 -13.6990
N -57.1553 -1.8242 -18.5188
20

N -250.1186 433.3331 -152.2642
F -152.4790 269.0607 -89.3712
N -103.3867 190.9483 -68.6466
N -28.9151 74.1973 -26.3242
O 71.6454 -84.6350 34.8076
F 142.1862 -242.5407 80.5747
N 172.8162 -332.9600 108.4227
C 151.5478 -300.5412 101.5829
O 66.7050 -136.8782 54.0306
N -269.2591 469.2365 -167.2648
O -285.5821 453.3667 -153.2383
H -274.8540 389.5525 -123.4853
N -151.0915 212.1331 -60.0451
N -23.9947 157.5686 -71.2444
H 89.1796 43.5691 -37.4653
O 201.2338 -85.0823 17.8772
C 253.8241 -246.7036 75.6067
C 236.4583 -414.5019 159.5088
O 175.0726 -449.2986 179.2957
H -20.9880 -399.8244 137.6426
25

H 239.6236 -110.9650 87.2748
N 42.4908 -23.9247 36.9684
C -100.2096 -51.8822 -71.9120
N -282.6762 -98.4031 -504.9397
F -180.4088 -59.6532 -355.3422
F -204.3866 -47.2153 -246.2825
C 60.2439 89.2834 134.6607
C 89.2345 72.9715 306.8526
C 65.8635 109.6347 504.6782
F 233.6953 39.7382 107.4362
N 75.4570 -445.6213 55.0120
O -119.5208 -320.1882 -341.5977
H -3.6524 -24.7384 -161.6731
C 206.8919 -268.7060 330.3560
O 17.8725 261.5508 163.1501
F 79.6327 442.7419 65.8051
C -106.3492 187.4883 -393.3343
N -230.7292 -157.4084 -517.3437
O -572.7292 342.6531 203.8744
F -253.3437 278.8930 -459.4198
C 141.7587 -71.8593 463.4671
H 61.6433 88.6240 195.8999
H -371.9835 398.5266 92.2559
N 747.1046 -380.8737 307.9615
H 364.4772 -250.6668 -3.8078
19

N -82.7123 22.6950 -18.8267
C -51.6814 14.0070 -10.7443
O -39.6322 8.7165 -4.2592
C -12.9001 0.4858 3.5110
C 20.1774 -6.9719 7.6146
O 48.3824 -11.3183 9.0952
N 60.6596 -12.9883 7.3802
C 56.7149 -12.4756 6.5869
C 30.1557 -6.1725 1.3334
H -89.7504 24.6387 -20.6844
H -93.8672 22.4416 -18.4038
H -87.6169 22.4285 -15.2064
H -50.9920 6.0459 0.2156
O -26.8555 0.3109 6.4273
H 9.0399 -9.4321 11.2306
F 51.1050 -14.0792 14.4543
H 85.0546 -22.0639 11.6671
N 97.7572 -17.8813 7.4750
H 76.9616 -8.3869 1.1336
20

H -86.4295 -142.6091 -106.5921
C -48.4808 -84.1250 -69.0763
N -31.5648 -57.0791 -59.9216
H 7.5503 -10.2987 -42.0932
H 38.8486 40.3271 -9.4138
F 55.8905 80.3382 49.2631
C 47.0909 100.7023 105.3283
C 29.8549 82.4419 115.1115
N 13.9674 33.2737 63.4318
O -97.0906 -158.5524 -114.7609
N -101.3658 -164.0668 -113.1670
N -110.0896 -154.3117 -92.7607
F -45.2676 -63.4823 -64.3847
N 10.8223 -15.1326 -90.9749
O 76.0753 37.8064 -128.4489
N 131.5429 111.3906 -117.2189
O 153.5036 159.7261 -41.2469
O 90.9100 152.5319 127.0290
O 1.7499 100.2393 273.1960
C -137.5179 -49.1197 316.7003
16

F 21.1824 28.5592 79.7087
C 11.9377 17.7733 43.3799
F 7.1337 13.4337 23.4830
C 3.2730 -7.4584 -13.7037
F -12.7832 -28.3182 -51.1365
H -18.2719 -21.0980 -60.5112
N -18.8943 -23.2438 -49.7043
N -10.9034 -12.2279 -33.9843
O -5.9129 -6.5506 -3.1627
N 17.8763 39.9440 97.5584
H 30.4165 31.3288 85.6796
H 23.6920 38.1500 69.7721
H -8.7923 -8.4508 11.1026
O -17.1379 -6.6476 -36.6667
H -9.1772 -26.4716 -77.3488
N -13.6383 -28.7222 -84.4661
19

N -44.5623 72.7826 -4.1825
F -27.2974 45.4899 -0.8518
N -18.9191 29.5568 4.8887
C -3.5021 5.1365 8.3020
H 13.2005 -23.4762 8.1835
N 26.3178 -42.6822 2.6708
F 31.1074 -46.9453 -5.3600
C 24.6554 -38.7560 -11.1593
C 11.2990 -15.7222 -10.0958
H -49.0170 79.9367 -7.1916
N -49.3267 79.2631 1.6639
H -41.5428 74.3662 5.5296
H -21.7345 30.3813 19.8607
O -8.5718 7.8197 20.1210
F 6.4784 -23.5190 17.3088
N 29.0879 -54.6751 8.1963
N 38.6693 -69.9221 -9.2031
C 46.5184 -69.8699 -18.7558
H 37.1396 -39.1647 -29.9257
15

N -16.3512 -36.4618 52.6396
C -0.6961 -18.0122 32.0284
O -8.5787 -3.8444 10.1169
C 8.4035 11.0141 -5.8080
C 4.1126 12.3575 -25.2931
O 3.4576 23.6229 -39.6422
N -4.6265 25.8396 -35.8435
C 9.5522 19.6117 -16.6740
C -6.5820 -3.9919 -0.6382
H -23.2595 -31.3134 53.3555
F -10.0842 -36.4906 46.5582
F -8.5471 -49.4939 43.4407
H 7.6027 -1.5140 -3.8082
O 28.7361 31.8156 -53.6557
O 16.8606 56.8608 -56.7763
18

F 94.0538 26.7396 -25.3414
H 52.6976 14.9516 -14.9819
C 30.8040 10.4021 -8.5381
N 0.6487 0.8623 -1.5893
O -36.7007 -9.8937 8.4939
H -58.6823 -15.8755 18.7263
C -65.2661 -18.3874 13.6519
O -45.4573 -13.0076 6.6710
H 2.5053 3.3552 7.4159
F 107.4879 28.8637 -24.3036
F 99.5162 27.3189 -30.0358
N 78.9032 22.0824 -21.5440
N 32.0306 10.7797 -15.1351
C -9.0166 0.1143 -10.1539
C -48.6911 -21.3447 9.8436
O -80.6829 -25.8925 28.5002
F -96.1017 -27.2356 25.9819
H -58.0485 -13.8327 32.3383
21

F 205.9034 53.8846 56.5871
C 111.9933 29.3844 36.0645
F 30.4738 2.8304 23.0189
F -65.5662 -6.9633 4.7180
F -150.9572 -0.2272 39.2461
C -144.6612 16.6080 117.8916
C -109.2769 -21.2056 0.9312
F -14.5594 -16.6303 -100.4786
H 18.6823 -76.6856 -223.3545
C 213.8024 50.9460 77.8977
H 239.2550 55.7881 69.6641
N 214.9538 63.2600 59.0362
F 41.2315 -29.2498 -27.0741
F -130.3141 -154.8277 -44.5614
N -249.8472 -179.0016 -13.1129
C -275.7024 -21.9247 65.0218
N -203.6391 180.3085 230.6292
H 35.7783 307.2184 377.1452
F 189.8704 311.5261 194.7345
F 198.0539 -64.9717 -172.7279
F -155.4744 -500.0672 -771.2766
17

C -33.2537 -4.8939 64.4896
F -14.8912 -3.1854 41.1567
H -10.1486 -1.7880 17.7717
O 5.2656 -0.1572 -9.2066
H 14.5777 -4.1804 -32.3995
N 19.1022 6.2360 -42.3998
C 17.8249 7.8403 -37.7810
N 8.5962 5.3533 -19.3301
H -4.5620 -5.6391 4.0901
H -36.2861 -2.9089 70.1408
C -31.6976 -2.0015 64.2947
F -22.1536 -8.1716 54.8524
H -2.9892 0.5978 6.9465
O 12.3343 6.2086 -26.6060
C 28.0869 3.2782 -48.3418
O 29.7723 -2.2205 -58.1762
C 20.4220 5.6323 -49.5014
23

N 109.7281 56.8956 39.9685
F 89.2162 99.1242 -6.7781
C 58.1810 135.3463 -66.0007
C 40.6597 92.9633 -201.9080
F 42.1710 58.7219 -4.1882
O -68.1094 37.8561 47.0568
N -76.8888 -120.3768 89.2094
C -206.0119 -178.8367 -91.5151
C -302.4023 -274.4626 -13.1825
F 94.6941 -165.1339 -27.7726
N 194.4969 -188.9423 31.5176
F 254.5751 -36.3711 -125.4686
O 117.1012 467.8845 -198.7463
O -299.7097 219.3483 -219.4977
H -43.3162 -319.1275 -190.6023
F 157.6070 54.6865 359.3909
N 39.3311 157.4610 556.5154
N -40.5075 -190.4088 159.6269
F 18.0578 -212.8184 -189.5425
C 272.6652 34.2620 -95.0560
F -197.5197 -214.4414 -372.0228
H 178.0404 591.3587 137.3606
H -432.0592 -104.9887 381.6356
17

F 24.5660 62.3943 22.1046
O 15.4012 35.3538 12.6919
F 4.1443 20.0921 4.8376
F 0.2743 -1.1632 -8.4392
O -9.7695 -24.7634 -10.8560
N -14.7633 -39.5733 -17.4995
F -19.2139 -39.9903 -10.4160
F -9.9657 -23.3124 -8.0793
H 5.3179 -4.0758 13.8477
C 25.1820 71.7353 30.3186
C 18.1840 63.7781 25.6045
H 14.8183 50.1938 17.6724
H 8.6234 11.5897 4.3334
O -4.3770 -25.6312 -12.4246
O -21.0003 -49.1636 -24.6210
C -15.4830 -59.8568 -20.4224
O -21.9387 -47.6072 -18.6526
18

F -45.9736 -89.7551 128.4303
F -19.7230 -49.1156 80.5681
H -0.6456 -28.6678 49.0075
H 11.6665 4.9938 -3.0467
H 19.9834 37.9682 -59.2796
C 18.9472 56.1373 -81.0251
F 15.7476 50.6877 -83.3755
O 11.4405 39.3850 -53.0998
H -2.1976 11.3899 -4.7144
N -52.8075 -94.2143 134.1638
N -40.6374 -94.9007 140.0917
O -43.8562 -80.9795 120.7612
F -4.6719 -22.5002 54.6991
N 29.0039 9.6577 0.1175
O 34.9422 37.1729 -64.0433
H 32.7175 72.4597 -120.0283
N 19.9543 76.4072 -138.4059
C 16.1098 63.8739 -100.8205
19

F 175.8159 -102.3830 -154.8704
F 109.3952 -66.1291 -101.3615
H 72.6188 -60.1948 -70.0231
N 11.9051 -28.1429 -14.9500
H -58.4522 10.6803 44.6852
C -105.5247 49.4857 97.2401
F -124.8882 82.9794 109.8692
C -97.5917 86.6405 97.2123
N -34.3514 71.0006 35.8101
N 193.3467 -114.8772 -170.0179
C 194.6556 -112.4533 -177.3726
N 165.0045 -109.7646 -160.1270
F 74.6772 -62.7264 -88.0811
N 25.7275 -69.1152 -36.6002
C -49.3337 -25.4493 46.8774
O -125.1221 32.3283 119.9361
H -175.5646 102.9847 158.1267
N -172.4598 151.8275 163.9706
H -79.8583 163.3087 99.6762
12

C 3.0411 2.4319 -0.3273
C 1.0951 1.9125 0.4274
C 0.3208 0.6578 0.5379
C -1.3822 0.0652 1.6277
C -3.5886 -3.0315 1.3803
N -4.8656 -4.6974 0.8865
N -1.7764 -4.9296 -1.3800
N -1.2548 -1.0362 -1.5292
C -0.4841 0.8960 -1.9226
H 3.9117 3.0177 -0.9455
H 1.2792 3.3161 -1.1217
H 3.7038 1.3974 2.3666
21

F -76.8182 62.0168 225.8506
F -5.3448 34.8281 128.5701
C 28.9067 -22.4609 -26.5539
C 79.0330 8.7591 -154.8027
H 94.3467 -97.0193 -259.2773
F 80.5310 -100.6488 -128.9907
F 9.3109 -92.3885 -25.6062
F -150.7985 50.6845 69.7585
C -213.2883 178.4551 194.0982
N -50.2510 45.3453 278.8512
C -24.7057 2.5695 201.9513
O 46.3221 -64.6640 108.3549
F 122.7862 24.8683 -192.3809
N 245.9644 21.6315 -386.5862
O 271.9517 -17.4684 -455.1752
O 133.5466 50.9972 -281.0507
N -117.9429 110.2323 -51.5973
N -280.8253 -29.9441 272.4916
N -278.7742 -160.1693 485.7466
C 131.1368 -373.7227 -23.5556
N -45.0872 368.0983 19.9036
19

N -42.2769 152.1704 -116.2085
C -25.1603 94.5746 -72.7498
F -14.8224 67.6491 -57.2916
C 0.9579 21.9986 -23.8916
O 14.5422 -38.0479 24.4544
N 22.5956 -87.8833 66.0456
O 25.5919 -109.9411 89.6327
C 19.1226 -96.7374 83.1380
O 5.5009 -47.6849 48.0062
H -46.6560 165.1187 -126.6182
C -47.4153 166.1847 -130.4928
H -38.6115 154.9460 -125.7495
H -15.9929 80.2204 -80.7282
O 0.9412 33.9890 -51.5953
H 13.0878 -25.5916 4.5328
H 30.4571 -96.0073 73.8342
H 35.6869 -153.3542 129.6700
H 36.8903 -160.2730 151.8734
H 25.5608 -121.3308 114.1382
18

F -71.4104 -35.5573 -71.2263
C -46.9599 -19.6974 -40.3326
C -26.0521 -11.6698 -31.6890
N 6.9653 -0.5982 2.8582
C 39.2508 15.8415 27.1974
O 46.3514 27.8956 42.9485
F 43.2486 19.2673 42.9475
N 35.2508 11.1609 25.2560
H 7.6303 -0.3799 1.7053
O -83.8711 -35.9088 -75.0848
F -85.4406 -40.8240 -70.9509
N -77.3892 -40.1663 -65.4241
N -22.0094 1.3434 -19.9598
O 9.0703 8.6536 19.6795
N 38.6804 34.4466 40.7303
O 56.5436 32.9594 68.9115
N 73.1335 25.5959 57.7091
N 57.0077 7.6374 44.7245
20

C -195.3940 -107.4417 -173.9839
F -102.4428 -63.4937 -118.7432
O -72.5478 -46.2931 -119.0354
C -2.5350 -25.7135 -74.5146
H 51.8741 12.1385 -10.5308
H 105.5941 57.3223 87.8052
F 126.1642 92.8299 163.1318
F 91.6310 84.2239 183.2678
C 20.8040 35.7290 144.7627
H -205.4438 -112.6341 -173.2482
C -188.5519 -104.5484 -213.3074
N -142.7939 -71.6410 -224.5908
H -51.5940 -51.7005 -212.7162
N -19.5579 -65.8356 -163.3790
O 17.3639 -64.7245 -56.9421
N 34.4487 -39.6110 114.2860
N 59.5994 -9.8144 261.6149
F 127.2552 75.4770 343.7346
N 131.1002 148.8824 294.0857
C 215.0263 256.8484 -51.6971
16

N -20.7506 34.0811 -93.4292
C -20.5112 17.6033 -56.4737
H -10.2317 4.5102 -24.0473
O 6.2850 -18.4973 13.8508
C 17.3041 -24.2094 47.6971
N 22.8908 -18.5659 58.8471
F 12.4998 -13.0972 48.3603
C -0.9006 -11.2796 43.7224
H -7.8104 -0.5499 -3.9864
O -31.9264 37.4369 -93.6775
H -18.1471 22.7707 -89.7702
C -29.0249 23.2050 -73.7997
H 2.8985 -9.3479 -2.8008
N 23.6381 -5.9995 48.3386
O 30.2397 -18.0800 78.3702
O 23.5469 -19.9805 98.7981
25

C 266.8156 14.1665 -11.3709
F 59.5427 -61.6201 -122.9547
C 32.0828 -254.1779 -33.0198
C -117.3725 -112.4884 -60.1912
C -59.8785 -116.8541 -11.9225
H -92.2739 92.9008 44.0400
C -107.5646 186.0233 -84.4069
C -52.2841 219.1092 -138.5685
C -55.2797 -3.1521 -109.7832
F 420.7831 -144.2890 -104.7135
C 324.7347 -443.9069 32.7449
H -36.3238 -155.2047 459.9284
O -285.9898 -415.6135 175.0665
C -129.4930 -451.4507 -95.8925
F -521.5748 46.5880 249.7062
F -269.5540 -54.8261 -580.1090
H -443.2803 453.1319 -376.9635
N 526.1643 628.6332 155.1622
N 518.6880 -356.6029 132.7809
H 638.2466 -307.1220 -27.9182
H -548.1588 89.5395 -223.9265
H -343.4907 767.2554 -81.8465
H -27.5678 285.6359 123.5788
C 62.9000 331.4815 164.4229
H 240.1283 -237.1570 526.1563
16

N -27.9790 17.2379 14.0603
O -15.4384 10.6614 3.6167
C -4.5325 5.7475 -3.5027
O 7.6350 -1.6239 -4.1443
F 11.7702 -7.4414 -3.7793
C 16.7144 -10.9071 -6.6720
O 12.3957 -12.9083 -2.3151
C 7.0760 -9.0866 -5.1229
C -2.9127 -6.1431 -6.0142
H -30.3658 13.0565 17.4284
F -25.1369 19.9302 13.3932
H -22.1273 14.9801 6.7924
O 7.6199 12.6788 -8.6368
H 24.4960 -2.5374 -3.8678
O 21.0097 -24.0708 -5.9441
C 19.7759 -19.5737 -5.2918
22

F 6.8496 300.3685 154.6559
O 7.7913 153.4350 88.0134
H 8.6755 78.7804 46.6394
C -9.3219 67.9384 51.0193
H 9.6474 39.3814 22.6734
O 39.9638 -34.2122 81.5024
N 12.4839 -186.3572 -72.3568
C 9.3164 -257.1738 -193.5339
C -85.8332 -204.2022 -319.7767
O 43.5011 244.9664 190.5273
F -29.3495 98.7792 216.9765
N -94.9673 -39.1761 246.3545
C -145.2558 66.4945 -15.9281
C -33.7460 318.3523 -78.8875
C -85.3131 336.5441 -151.9402
C 105.3433 292.6472 -138.4460
C 217.5860 117.8662 21.0302
F 456.8606 -91.0403 121.4172
H 250.9663 -735.1284 113.2229
H -616.8860 -660.1458 -206.9730
O -423.4036 66.8964 -476.8544
F 355.0913 24.9858 300.6644
16

F -15.4130 -8.8476 -82.1092
H -14.9230 -0.5202 -46.3684
C -5.9943 -0.4972 -16.5623
O 12.7743 -3.7378 20.2401
C 10.0426 -5.4021 48.3747
N 13.7482 3.6626 54.4245
F 5.9700 4.6942 39.7654
N -5.3081 6.0656 31.0838
N -0.9773 -2.1342 0.4157
O -18.6830 -4.6983 -88.0461
H -13.4127 -11.3147 -82.5645
H -14.6014 -4.6741 -57.9557
H 1.3619 -3.8388 -4.5859
N 15.0302 9.2257 43.8887
O 19.4087 12.5289 68.8398
O 10.9769 9.4881 71.1592
23

H -236.0249 -366.5782 -311.1409
N -107.6415 -215.2416 -250.4065
F -20.2165 -29.6985 -263.9074
C 33.3828 66.8893 -57.2359
F -4.9034 85.1645 118.1115
N 31.2197 120.5986 224.8579
F 53.1873 82.3853 202.0621
F -151.6785 174.9664 115.6891
H -66.5011 44.4003 12.9889
H -258.4660 -260.3206 -276.2375
N 131.6813 -128.9428 -310.5440
N 268.0207 -90.9768 -477.0418
N 142.7513 1.5643 -111.9204
F 55.5104 63.9721 411.0561
N -108.6232 52.4615 471.4571
C 15.1338 129.5389 61.9463
F -21.4638 389.0089 -119.9834
H -199.3757 283.0286 -179.1555
H 18.5381 -315.6526 206.5782
C 460.2252 -292.0509 208.9700
H 366.9608 -206.5977 -321.8235
H -414.4573 288.6072 354.6251
F 12.7404 123.4737 291.0545
17

C -66.8934 -44.7348 83.7951
F -32.5090 -29.5233 62.3383
H -20.7878 -19.3463 43.7595
C 12.6079 3.4223 -5.2022
H 23.2601 12.7986 -49.1680
C 42.1023 45.5152 -59.3083
F 37.9122 34.4053 -59.6339
C 13.7101 21.8229 -32.8373
H -10.1445 9.9636 -9.2730
C -73.2523 -40.2674 91.8676
C -52.5484 -56.5832 80.9170
H -53.2724 -60.1775 83.1922
F 6.6345 -10.7600 16.7105
O 25.3433 10.4569 -22.7380
O 49.3380 28.4400 -65.1941
N 56.3339 50.1399 -73.3477
C 42.1654 44.4279 -85.8777
17

F 14.1933 -5.0594 189.5995
C 7.0945 6.1069 112.7959
F 1.0340 18.2000 51.3651
C 12.9658 10.5848 -7.4611
F -4.5869 -12.1052 -99.2131
N -8.4343 -0.5917 -121.4714
C -11.8440 5.3929 -115.9043
F -12.3858 -2.6370 -69.6255
C -22.6043 -8.5276 -2.3130
N -2.3297 10.2276 212.8435
C 3.1381 7.4304 177.6355
O 24.2578 12.8226 153.4018
H -3.3074 -7.1377 31.6549
O 5.0861 17.3294 -79.7594
O -4.6868 -15.1111 -123.7342
H 16.3609 -22.6545 -164.8115
O -13.9512 -14.2702 -145.0028
13

C 0.0296 7.1394 2.0039
C -0.9627 3.7391 2.0368
C -1.3806 0.1683 0.3222
O -0.5008 -3.5490 -0.0260
N -0.9023 -4.6409 -1.5586
C -1.5595 -4.4923 -1.7900
O -0.2886 -5.2470 -1.3382
C 0.2382 -4.5715 -0.5225
H 4.8326 -3.4189 -0.2106
H 1.8606 6.7530 3.0225
H 1.1888 5.9722 -0.8369
H -0.8821 5.9595 -0.1529
H -1.6732 -3.8119 -0.9498
24

H -193.9565 -36.6895 189.2882
C -127.7990 -107.4705 -46.8778
H 47.4188 -124.8869 -134.7528
O 54.2376 -3.8210 -38.9188
C 76.2922 33.5622 48.3924
C 44.4824 55.6523 106.5745
H 135.9941 -37.9895 156.4507
C 70.8383 34.6885 -82.0935
C -341.3562 139.3159 -236.7968
F -309.8544 136.5720 158.7966
N -98.0700 -45.4725 -35.6712
N -20.1479 -139.6400 -130.8104
N 302.5090 -43.2076 -175.5816
H 358.4821 -98.3441 51.9314
O -181.6752 -128.0883 117.0371
H -37.6541 -426.5044 46.8084
O -312.2921 -117.9750 -102.5048
C 208.9709 292.5685 -24.1862
N -113.7684 342.6623 374.3994
O 324.5264 287.9155 -235.1619
H -230.4765 -567.5327 -497.9438
H -49.3943 -398.6943 338.0814
H -320.6244 759.0923 99.8512
H 713.3172 194.2868 53.6882
19

N -4.5747 -28.8616 46.0515
O -3.3221 -16.4566 32.1216
F -7.6329 -9.3090 37.3100
O -3.4863 -0.1373 25.8354
H -2.4635 7.7372 7.5843
F 3.0564 16.8386 -22.0211
F 8.9476 18.1201 -52.2051
N 8.9650 14.0437 -60.9241
N 9.7299 8.6869 -50.4321
O -5.5540 -28.7154 49.3178
N -8.5890 -29.6653 58.5960
C -9.3849 -24.2280 64.6233
C -8.5978 -13.1996 68.5891
O -11.5814 -1.3947 71.9156
O -6.4977 3.2260 40.7035
O -0.6442 14.7364 -10.7244
C 8.2787 23.7820 -72.5814
N 16.5394 23.1443 -113.2670
F 16.8113 21.6525 -120.4930
19

F 4.0862 -35.4269 24.5052
C -1.0752 -21.5329 20.9542
H -33.0172 -20.0195 28.8016
F -39.5571 -15.4682 12.3319
H -48.4217 2.4945 -2.5709
N -15.2292 17.4910 -21.2261
F 29.7914 31.2208 -41.9997
F 62.8596 38.4873 -46.7398
H 75.9075 32.0115 -26.1739
F 14.5218 -42.2783 33.3032
F -10.0675 -37.0421 40.0187
N -29.6792 -50.0509 49.2515
H -56.8639 -30.5835 60.7602
O -90.1170 -39.5599 42.0780
C -90.2265 -54.0789 29.7310
N -51.0913 -6.2350 -9.9627
N 34.3033 43.7751 -62.0973
N 106.6937 95.5560 -63.4923
H 137.1823 91.2397 -67.4728
20

H -84.7349 -178.8508 -131.4312
N -57.6810 -107.1523 -77.4361
C -44.9013 -72.1646 -44.3227
N -9.7884 -24.2211 -10.9727
C 20.7903 36.5221 30.1702
C 52.0917 100.1718 66.7712
N 63.1512 137.1603 89.6255
C 55.9059 120.1364 76.7700
F 41.6079 36.9818 17.3288
O -103.0251 -197.2019 -136.7377
N -101.3401 -181.1267 -126.0472
C -100.9225 -140.4537 -96.2463
F -49.8117 -61.5308 -29.7209
C -38.6041 -63.5232 -5.2589
H 5.8222 -50.1445 -27.3262
N 75.2218 -21.1707 -32.7079
O 143.7050 26.7663 -1.7849
N 145.1888 136.6137 69.6173
H 85.0291 217.1323 136.8177
H -97.7048 286.0557 232.8918
15

F 32.4872 72.9541 -0.4789
C 18.0871 33.1826 -0.2773
H -2.8729 -1.1028 -12.3278
C -15.8843 -26.4342 -7.0456
O -19.9979 -52.8316 6.1753
N -16.0080 -54.1817 -9.7160
F -5.4631 -26.1223 -0.9231
N -8.6976 -21.3861 20.8665
C 7.2664 12.4957 5.9262
N 18.3123 80.2911 -8.7104
H 12.3439 61.2995 2.4778
H 15.3745 41.5399 12.7242
H -14.2389 -7.2673 14.9155
F -3.8828 -54.5786 -7.8704
O -16.8259 -57.8584 -15.7361
18

F 76.0752 78.5996 -89.7218
N 49.3984 47.1016 -54.2084
H 31.5967 28.5197 -27.2296
H -1.5500 8.9996 4.2174
H -29.4856 -27.3287 41.5207
N -47.3254 -50.5688 62.5741
C -49.9543 -52.2432 49.8393
C -36.6720 -40.3429 30.8685
H -9.7169 -9.5066 -8.8208
N 86.0808 82.5644 -100.1581
F 86.8301 84.2420 -97.0264
N 71.7595 82.0183 -76.6628
N 20.5435 39.2546 -23.3510
N -1.0581 -2.8549 18.3866
C -41.9893 -40.2538 58.4274
N -70.9442 -73.0053 88.1115
N -78.9490 -87.2365 66.9398
C -54.6394 -67.9590 56.2937
18

C 15.9129 111.8541 -215.2551
O 10.3904 69.2881 -131.4562
H 16.6799 44.3223 -69.9070
N 14.7359 5.0948 -1.2911
H 6.9095 -42.1546 84.1831
N -7.8672 -71.7852 134.2897
F -11.5651 -82.9134 139.2419
C -25.1647 -64.5257 99.0169
O -22.1143 -21.8717 18.8241
O 18.9475 130.2286 -221.6630
H 18.1192 128.8042 -215.8747
C 16.0720 122.4911 -191.8092
O 26.7200 63.3262 -64.1756
N 28.4107 2.6155 12.8860
C 4.6476 -44.7468 111.3678
N -15.2211 -104.2785 174.0773
N -46.2412 -138.4795 175.0105
C -49.3719 -107.2694 162.5345
18

N 113.3209 -112.7178 -34.6854
O 70.0018 -67.7182 -26.4899
N 46.6571 -41.1725 -17.9375
N 10.2836 -13.1736 -1.2079
F -39.2215 40.3880 7.0166
N -72.2644 65.9499 25.9620
O -81.1938 66.1381 21.3700
F -76.6168 58.8712 13.7540
F -13.9413 29.0978 6.7476
F 133.4883 -116.1370 -38.0920
N 127.7038 -113.3803 -40.0657
H 108.9548 -103.8926 -32.4329
H 48.3779 -48.7175 -18.6478
O 4.2670 4.3908 6.3631
O -46.5053 42.4417 21.7642
O -101.5931 89.2054 35.6234
N -124.2255 119.2008 41.5422
F -107.4935 101.2259 29.4157
12

N -0.3097 4.7963 5.2563
C -0.2147 2.8007 1.3683
N 0.2485 1.5631 1.5392
C 0.7719 -1.5398 -1.5048
C 0.9066 -5.2464 -4.9389
O 0.6431 -5.6836 -7.1550
C -1.9191 -5.3502 -6.0333
N -3.5267 -3.7173 -4.3645
N -2.2117 -1.2679 2.6927
H 1.2166 5.5214 6.2202
H 2.5129 3.7614 4.4357
H 1.8824 4.3623 2.4840
18

C -141.8313 -70.0827 205.6016
F -76.7617 -40.9765 119.3241
H -49.2042 -29.1203 68.1190
C -2.1597 -0.8497 -5.7605
H 51.7363 17.2186 -97.1950
H 83.7417 45.3693 -122.8203
F 84.6981 47.2237 -128.5501
O 75.9504 33.9622 -93.6716
H 20.3613 3.5319 -10.3148
N -140.9465 -74.5159 233.0711
F -150.1927 -76.8623 220.2889
O -130.1278 -79.0080 191.0495
F -50.3981 -10.8122 61.1214
N 1.9042 23.2898 -15.1841
O 72.1545 34.6637 -118.0396
O 114.5930 57.6626 -166.3799
N 122.4019 66.5189 -197.0760
C 114.0806 52.7867 -143.5836
20

F -14.4572 -104.0489 -13.5292
F 2.2244 -62.5648 -13.8982
O -0.2383 -45.9170 -35.5285
F 7.0282 -23.9065 -53.1581
H -4.5255 8.5347 -52.4157
C 11.7769 49.8554 -1.3413
F 9.3705 84.1297 58.0595
H -3.4285 98.6445 74.4691
N -23.3154 54.2580 47.6789
O -15.4622 -116.4260 -13.0987
F 18.1873 -113.1068 -9.3469
O 51.1724 -92.7107 14.8910
F 41.7712 -52.5507 -23.2503
N -23.1703 -89.9117 -104.7111
O -87.7216 -97.0365 -169.7849
H -132.1679 -68.1277 -205.0455
O -145.3500 6.0906 -134.9977
O -43.5928 102.7403 37.8061
N 65.3395 186.4903 218.2523
H 286.5594 275.5638 378.9490
13

C 5.5274 -0.8027 -1.2866
N 2.2933 0.0131 -0.7277
C -0.2575 -0.3753 0.6692
O -2.4937 -0.8660 1.1150
C -4.0868 1.0596 0.3032
C -5.7549 0.3673 1.2385
N -4.3336 1.7202 -0.6507
C -2.1630 2.2481 -0.9735
H -0.9302 0.9028 -0.4554
H 7.4130 -1.7922 -1.4018
H 5.2411 -0.8926 1.6753
H 3.0614 -0.9957 -0.2650
H -3.5166 -0.5867 0.7595
18

C -1.0803 60.5861 -56.2785
O 2.0064 37.6283 -33.6309
H 2.7044 19.5127 -20.0946
H 5.4683 -1.5661 -1.2447
H 5.3781 -22.1095 19.5807
N 1.6117 -39.7691 37.2507
O -0.9700 -41.6467 36.7823
C -5.8472 -31.1891 25.0742
O -4.6358 -5.9551 10.9716
O -0.7081 65.3804 -59.5487
N -0.3425 66.4742 -57.1403
O -1.5217 64.7957 -52.9997
O -0.9189 24.0380 -17.0693
N 7.6293 -3.4017 -3.4465
C 0.7910 -23.0505 29.4002
C -0.1364 -51.9140 46.0908
N -2.7153 -67.5174 49.4177
C -6.7129 -50.2962 46.8849
12

C 0.6979 3.4037 4.3594
C 0.8908 1.4796 2.4979
C 0.6292 1.3622 1.6161
O -0.2760 -0.0959 -1.9182
C -1.6315 -1.6165 -3.9558
N -3.8516 -3.0896 -4.5238
C -1.2815 -3.0847 -3.7510
N 1.2891 -3.1098 -3.7917
N 2.9130 -1.6869 -5.1586
H 1.4934 2.6528 5.0644
H 0.4206 2.9035 6.4103
H -1.2934 0.8814 3.1509
19

F -0.6017 -6.2485 65.4894
F 1.1897 -2.3801 39.3251
C 4.3350 5.8717 27.9920
N 7.1339 10.6502 6.7751
C 6.7594 10.5704 -16.1230
O 2.1666 4.9114 -34.6764
F -3.8677 -3.5670 -44.9624
C -7.9810 -12.9979 -42.0488
N -9.4084 -18.1442 -20.2104
N -0.0027 -7.7315 72.3387
N -1.4567 -4.8048 71.4876
F 5.3856 0.1222 63.3269
H 13.6924 17.0398 31.5928
O 15.9885 20.9115 16.9745
N 9.5952 24.5061 -12.3208
N 4.5418 8.1914 -39.1198
N -8.7750 -4.0367 -66.5923
C -14.1559 -17.7667 -70.0707
O -24.5389 -25.0974 -49.1776
16

F 11.9983 30.2263 -39.5558
F 5.0191 15.1222 -24.6220
H -1.4681 8.2557 -10.3627
C -2.1121 -6.7053 9.3354
H -9.6237 -23.5846 22.7042
N -10.4517 -24.9397 22.2228
F -6.3891 -18.6929 27.9102
C -9.6125 -11.4521 18.4067
H -4.2968 0.7953 -1.5997
N 17.1758 34.8171 -49.9069
H 16.7090 26.9816 -45.2946
C 12.0698 26.5413 -29.9675
H -8.1833 -0.6255 -7.3754
N -1.2456 -17.4046 12.9861
O -1.7505 -17.3727 38.8714
O -7.8387 -21.9621 56.2479
15

N 5.3475 -32.2890 12.9686
C 3.8692 -13.8078 6.0907
N -3.9962 -8.6031 0.3508
N -3.2361 4.2075 7.6123
C -5.7186 17.3096 -2.4392
O -6.4144 24.8715 -14.3970
O -13.1482 30.0466 -11.7718
F -4.5115 18.4777 -4.4494
C -5.9469 1.2611 -2.7923
N 5.3162 -40.4822 14.6924
H 8.3950 -28.4443 17.4288
C 4.3246 -31.9282 15.2772
H 4.3276 6.3522 2.4805
H 11.0823 21.9347 -15.7310
O 0.3095 31.0938 -25.3206
23

C -10.2214 -12.0062 -132.4809
F 32.0256 -9.9844 -166.3663
N -34.8050 -28.4746 -63.2053
C -243.1763 3.5533 -151.5267
F -160.0680 -93.1264 -122.4091
F -110.5281 -169.4171 -59.1694
C -6.7764 -108.3780 115.7511
C 56.4241 175.5905 229.9135
C 124.8112 237.5260 262.1086
F -79.2937 72.1703 -68.8479
F 177.7321 -47.6316 -210.1728
N 217.2643 88.6502 -61.1843
C -111.8588 71.8460 129.6083
F -29.8179 -313.4894 69.3012
O 283.9818 -56.7642 -56.4898
O 297.5483 115.3972 -183.7090
O 62.6043 237.9829 -489.8301
H -527.7795 135.4495 -162.8376
H -192.5050 430.7933 361.0506
C 351.7162 -982.0115 396.9134
H 293.0990 -62.6545 -263.6931
H -155.3997 546.5536 461.7418
C -234.9771 -231.5750 165.5339
16

N 26.5839 -46.1533 9.2292
C 18.5607 -28.1105 0.0736
C 9.3811 -12.4454 0.3322
N -7.4363 8.3523 1.6608
C -20.0785 20.3464 -3.8647
O -18.6683 26.8236 -11.3485
O -20.2969 31.0764 -6.0920
C -19.6818 22.6833 -6.7942
C -10.9332 -3.2665 -10.9783
H 27.5360 -53.7658 6.6508
H 30.4798 -39.7455 19.4808
H 21.3509 -34.4175 10.7605
H 11.9575 1.8852 7.5301
H -3.2528 27.4165 5.1145
H -26.4502 46.3611 -7.7261
N -19.0519 32.9596 -14.0287
17

O 22.2634 -11.7505 32.8334
C 11.7665 -7.4694 18.6315
O 5.7266 -2.3768 10.5443
N -2.5784 0.0230 -0.6989
F -11.2044 4.9141 -15.1231
C -13.5616 4.8658 -19.1292
C -13.5130 4.2387 -17.6219
F -9.5081 3.4749 -13.3340
C -3.8780 2.2849 -5.0743
H 22.9620 -11.7891 34.0090
H 20.3634 -6.3590 31.3850
H 19.3692 -6.4392 24.4568
H 6.9920 -2.0552 9.7352
H -2.3368 3.5689 -6.7492
H -13.3268 12.1105 -20.1713
N -16.3519 3.9579 -34.7238
F -23.1843 8.8006 -28.9695
19

F 68.1813 -1.9313 -125.0265
F 47.6062 1.1343 -84.0781
C 40.3699 8.9159 -75.9093
C 21.8509 15.0072 -43.9392
O -9.9974 9.6966 7.9250
C -41.3834 -2.9386 72.3412
F -58.9070 -11.4090 112.1741
C -66.0048 -18.3646 117.7292
N -43.9076 -15.8900 77.5786
H 76.9807 -3.8400 -132.9764
N 80.6866 4.1866 -147.5536
C 78.5516 12.4283 -149.9206
F 65.8703 28.2126 -127.6656
O 54.3214 24.9770 -86.4981
C 15.9214 34.9191 -18.8050
F -35.2418 21.3970 68.6003
N -89.7486 -13.3114 150.0448
N -109.7597 -41.9003 208.0354
H -95.3903 -51.2896 177.9439
17

H -29.9731 50.9083 -15.2487
O -14.0006 31.9770 -11.3100
C -6.8677 11.9604 -0.9132
N 5.2722 -4.1992 -2.6578
O 15.5750 -21.7064 1.0194
O 17.9685 -38.7721 15.9178
O 16.5237 -31.7741 12.6221
F 9.9815 -24.0300 6.1421
C 0.6625 -4.2127 8.9174
F -34.7330 48.5907 -10.6838
C -28.4829 52.7341 -11.1244
H -31.4385 48.3217 -19.1238
H -3.5807 17.8698 4.5649
H 12.2815 -13.1261 -1.4476
F 16.7791 -26.3698 9.4078
N 28.9729 -48.5072 7.8588
O 25.0596 -49.6644 6.0589
14

C 2.1590 -0.1575 0.3426
C 0.8970 -0.4570 -0.0121
C 2.1578 -0.7233 -0.2183
C 0.3085 0.6278 1.8368
C -0.2082 0.2530 1.3344
C -0.8555 1.6225 0.0725
N -4.1844 1.7111 -0.6001
O -4.3725 0.9750 -0.7559
N -3.7969 1.2716 -2.9281
H 3.8144 0.1916 1.2329
H 2.7106 -1.1453 -0.7918
H 1.9494 -2.0992 0.0532
H -1.2541 -2.0480 0.8649
H 0.6751 -0.0222 -0.4311
23

F 115.3278 -249.5682 -162.9697
C 83.8830 -236.2478 -63.6863
C 39.0196 -216.1626 -7.0766
H -27.0823 -166.2608 14.0749
C -125.3274 -49.5735 105.9960
O -266.5233 111.7781 126.5975
F -250.9368 160.4651 46.2530
F 111.3236 190.2665 -33.8929
H 289.2970 404.3310 58.2940
O 201.0483 -404.4370 -152.7571
F 30.2757 -568.0199 -107.4482
N -79.0144 -685.1877 66.6593
H 400.6943 -92.2199 -62.3794
H 376.5000 -121.9270 -192.1683
O -77.9841 291.8929 -184.6369
N -296.7999 349.2912 -13.8125
F -605.0434 39.9043 12.0789
N -16.0449 -96.5886 161.9361
H 508.2189 406.5674 -100.6343
F 283.8708 129.3108 -341.2781
H 130.1190 417.9769 -179.4368
H -678.7596 -298.8520 396.1475
H -146.0620 683.2609 614.1396
16

C 34.9455 -13.3464 -37.7793
N 17.9998 -6.7005 -20.5326
C 3.4794 1.6573 -6.4829
H -3.4062 1.5321 6.9800
O -21.6953 5.6211 19.2552
N -27.2521 6.6037 20.0478
N -14.3737 5.8632 19.2752
N -13.4587 3.6417 12.6360
C 0.6071 0.8900 -2.0781
F 36.5178 -15.4898 -37.7189
H 35.6394 -7.5877 -36.4673
H 29.3228 -10.2184 -25.8716
H -0.9825 4.6851 0.1137
N -16.9934 11.3570 17.1001
O -31.1113 7.0214 34.7273
H -29.2386 4.4703 36.7955
17

C -79.9311 -48.3576 52.2473
F -42.9993 -29.4562 40.8716
H -23.5718 -19.3270 33.0230
C 11.5537 2.5468 -4.1746
F 30.3155 16.7449 -29.3187
O 46.3817 39.4678 -35.8913
F 45.6047 38.9231 -37.4055
C 26.4407 27.2866 -27.2020
H 6.3736 8.9990 -17.7556
H -84.4707 -47.5768 56.5679
C -78.6063 -60.1287 54.6021
C -73.2129 -61.9219 54.3131
F 2.4183 -16.0335 19.5314
C 27.6998 4.1297 -3.3522
O 55.9676 37.4256 -44.9650
C 67.0871 63.4728 -50.0575
O 62.9495 43.8053 -61.0341
19

C -91.3252 -6.8845 73.9055
F -51.8796 2.3370 49.5596
H -28.2838 7.2782 29.6242
C 5.3776 19.9873 -5.0922
O 41.7640 14.6914 -38.0714
O 53.7257 10.7130 -49.4250
F 50.9298 -4.6167 -50.6597
O 31.7440 -27.1812 -36.1953
H -7.9938 -34.9078 0.1601
N -96.8284 -14.7725 84.8784
N -94.5502 -5.6287 86.9566
N -79.9928 -1.3495 82.4363
F -12.6806 31.5472 24.6156
O 11.6216 45.5593 -5.9762
N 51.2991 54.7829 -42.3189
C 79.5417 28.3817 -69.7303
N 72.6486 -4.0288 -84.2260
C 55.3038 -47.4940 -43.8634
O 9.5784 -68.4140 -6.5781
17

N -34.8084 74.2578 -18.4784
O -14.4542 47.9838 -15.8518
C -3.2208 21.0338 0.4780
N 12.6583 -7.4943 -2.5046
O 24.1593 -34.9177 4.2272
O 21.4461 -55.9900 17.6301
F 17.7512 -44.9567 17.0170
C 6.9309 -30.8145 1.2536
C -3.3922 -0.4948 5.0863
F -40.0548 71.8642 -14.9762
C -38.9546 78.1455 -14.7948
H -37.9647 65.6641 -26.1442
O -5.1975 28.1520 -4.1820
H 30.4475 -26.6421 4.9286
O 22.4526 -45.3693 18.4724
C 28.7496 -68.6891 10.3626
O 13.4518 -71.7328 17.4763
20

F 17.9621 -135.5363 65.4332
N 7.4641 -90.6470 45.4138
F -9.0904 -78.4420 49.4611
O -20.6565 -52.1325 30.7325
H -39.1508 3.6081 -0.0169
F -24.9235 73.6319 -37.5274
F 16.0769 124.6904 -68.7404
N 27.6585 131.3963 -78.1369
N 25.5098 82.9593 -55.3956
N 21.8739 -142.8327 73.9440
N 44.3537 -147.6288 81.0868
C 59.5421 -147.6464 103.4620
F 17.7860 -104.6296 101.0726
O -69.9314 -104.5224 73.6043
F -135.5581 -91.6530 35.9523
O -196.3511 -12.5263 -39.7469
N -171.6763 90.2314 -123.4916
N -36.4217 199.1844 -159.9758
F 120.8084 246.8977 -146.3065
F 344.7243 155.5975 49.1755
23

H -289.1948 -262.5550 -92.8971
N -155.4290 -214.7182 -92.2956
F -3.9552 -215.7241 -170.0718
O 72.4501 -64.4008 -29.1542
C 116.1657 88.5780 13.8631
F 125.4137 190.5173 163.1829
O 178.2505 225.3922 181.2599
C 41.7880 141.8009 47.1027
F -90.8245 -32.5535 -226.7722
O -338.6787 -165.9028 26.0822
C -132.3448 -58.7383 68.7985
C -242.5568 -191.5366 -290.6293
F 118.1460 -305.5894 -174.7533
N 306.8481 118.4241 284.6124
F -85.8561 40.7692 3.3034
C -258.4958 107.6282 -209.5426
O -251.6171 370.3097 -132.9337
H 134.5014 29.9691 -275.1413
H 227.2269 -37.1954 403.6711
C 271.7061 16.8444 328.4533
H -42.3669 -129.9423 -317.8026
N 205.3324 125.9012 493.7630
N 93.4909 222.7222 -2.0986
16

O 40.7798 70.9118 46.4121
C 29.2037 36.9668 20.5929
F 22.8502 11.3778 9.9416
F -7.6385 -9.1564 -16.7795
O -20.1980 -37.9125 -28.1329
N -17.5248 -44.1251 -42.8145
F -36.6712 -30.5107 -40.2749
N -24.3630 -14.2611 -13.2899
C -9.6674 2.1710 20.3042
N 31.1221 71.3010 62.7996
H 36.5507 53.4480 53.8306
H 41.7055 46.7357 54.7436
H -6.8083 4.5434 0.3661
O -10.6603 -45.8642 -27.2360
H -40.0842 -52.4943 -44.5765
N -28.5964 -63.1311 -55.8866
16

F -32.7887 -28.6312 -74.8037
C -21.4671 -9.8441 -39.9731
C -0.7429 -3.7215 -13.7004
O 16.7835 7.8348 9.6638
F 18.9868 16.7708 32.9627
N 24.0622 19.8139 40.8787
O 15.9081 10.8772 30.7925
F 1.4474 4.9642 29.9232
O -8.9280 -0.4896 13.1981
O -41.0861 -25.1285 -75.5884
F -28.3499 -28.8211 -66.3648
H -38.2510 -20.0218 -47.2233
H 0.7700 2.0115 6.3248
O 30.7845 12.6415 51.8038
O 39.9771 17.3484 51.1973
O 22.8940 24.3955 50.9088
21

C -114.2122 16.2444 85.3012
F -55.2555 6.3989 44.7299
H -16.1113 20.0457 9.2473
C 64.1661 64.1607 -28.4010
O 81.0439 73.1134 -62.0408
N 96.5715 77.2941 -53.5093
C 54.6959 15.3466 -30.7452
F -43.2872 -100.0131 -10.6547
C -136.9065 -239.8597 21.0776
F -121.6922 19.9377 86.4670
F -47.7386 58.7430 77.5992
N 20.9620 103.0988 72.6437
F 106.1715 67.3798 3.6730
N 66.5565 -12.1000 -53.5035
O 40.3318 -38.8218 -114.7779
O 32.8832 -24.0331 -100.8334
O 9.5972 4.2069 -73.1127
F 77.0592 112.7908 -0.4662
N 16.1286 116.3847 63.8967
C 120.3943 240.0441 78.3134
O -251.3583 -580.3621 -14.9044
22

F -62.7113 190.0648 365.1243
H -35.9129 118.7633 92.8003
N 27.8505 -8.0089 -109.2113
C 106.0921 -4.3717 -232.8674
C 12.7617 -54.0444 -214.3398
C 98.6582 39.9183 -53.1975
C 14.0293 -60.3031 155.9460
F -113.9249 -18.3461 4.9475
C -359.8099 -27.3659 -81.4315
O -137.6014 185.6177 489.3648
F 138.2236 -116.3988 131.0026
H 209.6735 -236.1586 -212.3773
F 333.5623 16.8535 -443.7562
F 134.4321 -66.3628 -210.9537
F -205.8666 -185.4257 -227.4601
F -41.8611 -100.2544 14.5949
O -176.2421 165.7759 -76.2294
N 18.7527 305.0769 9.8293
F -141.7245 138.0648 558.3447
N -25.8414 431.0522 -30.7570
C -250.2846 -522.1710 -369.0869
H 457.7448 -191.9761 439.7138
16

F 8.7859 43.0799 16.7166
F 7.5452 23.8220 10.1847
O 2.9676 11.9726 4.0734
C -3.3269 -5.6717 -4.1188
O -13.1656 -22.9982 -10.8300
N -6.8073 -30.8377 -20.0079
F -3.0245 -29.5504 -12.7539
N -2.0617 -14.1268 -6.6799
O 0.0351 -6.9505 5.6101
N 7.3377 45.9570 22.7710
H 15.5070 42.1287 24.5332
H 7.4470 41.6776 23.8488
H 1.0189 4.7327 4.7739
H -4.5978 -23.9298 -11.1068
H -13.8213 -39.2749 -19.8327
N -3.8393 -40.0306 -27.1818
19

C -172.8235 63.4375 -130.7142
H -106.6065 41.0851 -75.9559
O -87.9679 29.6340 -40.2830
H -36.5193 14.1382 5.3576
N 28.5399 -14.2059 49.7203
N 94.9889 -35.9573 76.6362
F 141.0014 -45.4767 75.7470
C 131.7216 -45.3111 48.0816
C 82.7559 -25.7078 5.8312
N -185.0349 67.6442 -143.4281
C -198.3945 71.4399 -133.4156
H -195.1001 68.3197 -114.2818
C -121.4286 36.8120 -30.8691
O -77.8132 18.0137 18.6681
C -0.7018 -15.8146 68.0731
N 98.1686 -43.8940 109.4523
N 185.5782 -72.7750 101.9502
C 223.4928 -70.0784 84.7067
H 196.1430 -41.3034 24.7234
19

C 47.3852 -43.6966 243.0455
F 40.7096 -24.8449 148.7740
N 35.2418 -18.6540 101.8422
O 27.8889 0.3379 12.2185
H 0.0452 4.9115 -87.3025
F -22.5883 26.1394 -143.7954
F -46.2244 32.9773 -164.9283
F -61.5316 20.7395 -136.8601
C -57.9269 16.8412 -38.8767
H 60.0523 -46.8052 270.8463
O 66.1858 -47.5029 266.6869
H 77.9542 -48.0814 246.9384
H 66.2322 -16.1839 115.0422
O 56.9186 -1.2352 32.9198
O 42.8477 3.1000 -95.5526
O -9.0836 20.5853 -183.1771
N -74.9699 45.7416 -253.7613
F -113.5395 42.7454 -212.3588
H -135.5973 32.8851 -121.7010
12

C -6.9671 -8.4082 0.1808
C -3.2470 -4.3124 -0.4018
C 0.2198 -1.8185 -0.9473
O 3.2978 2.8433 -0.5877
O 6.7656 7.1827 0.3031
O 8.6052 9.3467 -0.1006
O 7.2216 8.4145 -2.0806
C 1.0856 5.2916 -0.1300
C -0.2025 3.4020 0.9411
H -4.7263 -8.7337 -1.2085
H -5.9316 -9.0222 2.5879
H -6.1211 -4.1858 1.4436
21

C -188.6373 -89.5339 117.3277
F -104.3030 -60.3182 64.2723
F -58.4576 -61.6696 12.6888
C 14.2786 -43.7584 -43.3925
H 54.3754 -24.7704 -95.2676
N 101.9075 24.9923 -84.3507
C 100.6986 88.4252 -45.7964
F 46.2995 129.6217 -4.3270
H -31.4569 122.8445 50.0487
F -199.8969 -104.6417 133.7487
O -137.2630 -107.6253 134.4988
N -56.4994 -91.3811 135.9289
F 50.6041 -48.9932 36.5293
O 41.4306 -91.1450 -72.9409
O 34.1816 -116.9583 -196.5154
N -27.3192 -162.9852 -278.9030
F -100.6392 -93.7987 -264.0208
C -46.7909 38.5140 -73.8268
N 24.6245 145.7637 91.4817
C 362.6771 345.4880 302.8297
F 120.1857 201.9296 79.9864
19

F 132.8337 -79.1831 223.1775
C 73.7411 -47.0687 138.2740
F 40.9092 -33.5056 96.5733
F 1.9900 -18.8441 16.1978
F -49.2954 6.4836 -71.2069
C -77.2034 43.5735 -130.5464
F -78.4547 61.2674 -157.8011
F -59.1921 72.6525 -129.2632
N -8.9800 47.1816 -52.2439
C 145.3647 -83.4970 244.3349
F 136.4486 -87.6099 247.4988
H 121.5940 -92.5540 226.7446
F 50.3458 -57.3990 121.7103
N -3.8651 -47.1815 34.0910
N -59.3596 -30.6606 -67.2927
C -100.9308 19.3354 -168.2882
O -112.5284 94.5863 -225.2395
H -92.7289 125.2283 -215.2812
C -60.6886 107.1949 -131.4393
19

H -60.2862 -279.7709 -130.8101
F -35.3219 -175.4136 -89.9003
N -30.0378 -131.1813 -83.0174
O -7.7404 -47.1642 -43.7373
H 11.1558 64.5619 8.0008
F 30.3836 162.2649 75.6815
N 40.7097 207.3637 123.4272
N 39.1581 187.8160 127.1034
C 23.4926 87.0601 85.0436
H -62.9746 -309.2308 -136.0343
N -67.2538 -304.1780 -158.9401
O -72.9492 -285.7946 -165.8139
F -36.6674 -159.5094 -143.6495
N -14.8061 -83.2453 -100.0814
O 22.4823 40.6634 -43.4397
H 50.7194 182.3570 64.5142
O 73.6613 285.9223 168.9061
O 56.8198 317.3038 226.7580
N 39.4550 240.1751 215.9891
16

C -49.4613 -18.4761 33.3033
O -23.4665 -11.8139 25.0806
C -14.8499 -5.4954 8.7809
O 15.0637 11.1186 -10.9079
C 20.6412 16.5975 -17.4088
O 29.4731 24.2583 -20.2766
N 30.3975 8.8672 -17.6039
C 23.7485 -4.4713 -10.4634
H 6.2974 -15.7799 -14.2252
H -58.3336 -16.3236 29.4300
C -38.3690 -35.7081 32.7177
F -39.2306 -18.9614 48.1205
H -0.2934 3.8033 -1.0397
O 9.8066 23.3817 -31.1759
C 39.5110 30.8977 -33.3086
N 49.0652 8.1054 -21.0231
23

C -311.4055 -179.6727 160.2943
F -93.3866 -80.5713 202.0592
H 27.2202 15.6320 248.1376
N 121.6446 -16.4883 165.4472
F 132.8530 -34.4325 -56.5071
F 70.8084 68.9774 -94.4852
O 45.5916 -4.4115 -59.3941
F 83.9713 59.0591 -222.0403
O -43.6877 161.7180 -353.4611
N -264.5557 -190.7225 94.8596
N -266.6326 -294.9468 209.9820
H -249.3535 -139.3497 167.5240
H 401.1162 -47.7149 293.2687
O 415.6603 50.6353 248.6805
C 272.8446 142.6565 -289.1899
N -153.9931 543.2718 -47.6701
O -324.5327 112.8245 -127.5276
O -349.6876 -451.3281 -100.3732
H 342.4829 -183.0527 -87.5855
F -99.6418 12.1700 37.2324
F 204.3924 -193.4940 -184.0842
N 389.8771 84.1687 301.0924
F -351.5858 565.0718 -506.2597
17

O -127.2449 -17.4719 -32.8851
H -78.8425 -16.6749 -18.0882
C -33.8704 -1.3088 -17.1258
N 4.7310 1.0222 -3.5428
F 62.8705 9.2270 7.1397
N 77.5339 28.1278 25.1372
F 80.6241 15.4473 16.4504
F 65.1911 4.6658 -5.7416
H 14.9536 -18.0737 -20.3811
H -152.4035 -18.3288 -16.7717
F -143.7418 -11.4343 -31.0014
N -132.6828 -31.0343 -26.5878
C -11.9264 5.1435 2.9475
C 33.7497 11.6386 26.8942
F 101.5865 20.6767 31.4290
C 124.8083 11.9694 36.5296
N 114.6635 6.4083 25.5980
20

N -63.9152 27.3845 -79.9707
F -32.8680 16.2344 -46.9925
H -15.5712 12.9542 -51.5073
C 0.4142 2.4526 -32.3290
N 6.7449 -13.0369 -8.9284
C 29.6203 -15.2647 39.5241
F 45.0075 -21.0103 68.8657
F 27.6406 -6.4076 79.4894
H -12.9518 -1.4241 53.1597
H -73.1075 28.9014 -84.3425
N -34.2428 33.5765 -86.6518
C 5.4898 39.8238 -79.9743
C 24.9878 23.7505 -65.1655
N -5.2975 -7.8327 -64.8820
O -57.6325 -41.1886 -23.8970
C -115.6235 -65.9779 36.2061
C -140.6646 -68.8931 100.2372
N -37.8575 -41.8464 134.4418
F 96.8340 -1.3382 99.5213
O 352.9932 99.1426 13.1958
20

O -204.6991 -166.2952 -169.1022
N -130.5026 -96.0921 -93.5605
F -94.1081 -62.3902 -29.4053
O -11.9530 -5.5802 20.3184
N 67.1049 50.2064 71.8725
N 120.4878 98.6189 91.3870
F 146.6430 111.8710 76.6477
H 123.4648 79.0892 40.2102
H 67.4476 32.1792 -31.6076
O -234.9492 -172.6413 -170.2267
N -247.0847 -180.6636 -138.4625
O -246.9146 -160.4752 -92.7931
N -115.5285 -69.9754 36.8789
O -51.0861 -12.5905 87.0631
O 69.5524 48.8963 52.0765
O 175.9467 136.7082 27.6039
O 252.6888 194.1196 -29.4609
F 233.8343 161.6992 -11.6873
H 157.4231 101.8153 25.4308
H -77.7674 -88.4995 236.8171
14

N -3.3018 -3.3063 18.0934
C -0.6222 -2.8656 6.6980
C 0.9947 -0.8445 -3.1977
C 1.7707 2.3137 -9.1777
O 2.9064 4.6554 -11.6938
H 3.1453 4.8930 -11.2991
C 0.6609 4.3809 -7.6104
C -1.3292 3.7627 -0.9595
H -2.8393 -3.2723 9.0993
H -3.4869 -0.1651 20.8689
H -5.7539 -0.5656 15.2314
H 2.4084 -2.1683 9.9818
H 2.7541 -5.5128 -14.6922
H 2.6928 -1.3052 -21.3423
19

F 115.0944 155.3581 -169.1111
N 81.9778 99.3694 -119.6341
F 60.2865 77.0643 -133.2816
C 31.9139 26.4492 -84.9151
N -20.2899 -48.8823 -11.5791
H -72.3259 -97.9471 98.7149
F -96.7726 -123.1429 171.8272
F -100.9460 -101.5051 195.4077
C -61.9144 -38.0051 147.4017
H 127.4015 179.9877 -176.7408
C 136.2085 180.1988 -212.3586
O 138.9769 169.2954 -222.0312
H 87.0498 94.8119 -225.3306
N 73.4778 30.4812 -202.0477
O 12.7437 -41.9612 -96.6145
H -66.3374 -107.7756 74.7643
O -139.2987 -157.4722 250.4813
N -165.2018 -168.9270 374.3106
N -142.0439 -127.3973 340.7368
20

H -82.7638 37.7777 -269.7919
F -46.3453 26.8555 -163.6871
O -22.6618 26.6843 -122.8574
N 19.1719 2.6620 -67.8330
N 36.6456 -22.6163 20.2372
N 51.4985 -29.4703 127.2954
N 37.2035 -11.4433 224.2465
H 15.2486 -3.4418 220.7345
F -5.7761 -18.2115 92.1027
C -100.7270 38.3211 -287.3015
F -78.2051 43.3510 -258.8010
O -50.4262 78.5304 -189.1598
F 8.6064 63.7447 -84.1390
C 3.3734 -38.0439 -117.0011
H 10.1004 -145.1260 -202.7146
N 43.7560 -222.2664 -219.8089
O 79.0257 -231.4888 -91.8258
C 84.3949 -95.8114 198.3500
H 31.1160 97.5107 452.8424
F -33.2355 402.4824 739.1122
17

F -11.1670 -6.9136 -64.4373
C -9.0257 -3.5701 -35.8037
C -3.6167 -0.5508 -14.0820
C 0.5261 1.3497 12.7992
F 5.3529 1.5322 27.5584
C 9.0982 1.9442 38.1573
C 6.7389 2.8413 34.0932
N 3.3520 -3.0776 21.9674
C 0.7429 -2.6613 -1.7519
O -13.3921 -1.1711 -67.1487
F -16.6996 -3.0830 -59.5122
N -18.8332 -0.6884 -56.0168
N 2.2663 1.1320 -7.8268
F 2.6638 4.3904 22.6959
O 13.8817 2.4450 45.9937
O 16.8634 0.3191 60.5163
C 11.2481 5.7623 42.7980
16

N -28.4764 71.0466 28.8139
O -11.9178 41.3769 9.8694
C -6.4783 21.0058 -1.4342
O 19.5540 -7.7194 -4.5496
O 14.2081 -35.4300 -10.7381
C 9.4774 -46.4654 -23.6202
N 7.7206 -41.0674 -20.7476
H -4.8151 -19.7790 -10.1328
H -10.7225 -8.9425 -12.0421
N -31.2603 70.4903 30.3443
F -23.6292 68.8112 27.9705
H -18.4575 41.6757 41.6103
H 0.9801 10.0562 15.0537
H 32.1778 -36.2202 -7.0359
O 19.2979 -64.3639 -26.5088
C 32.3413 -64.4749 -36.8525
15

N 6.3088 -14.0829 -28.9771
C 5.4509 -6.9137 -15.4452
C 5.9233 -0.9776 -3.9433
C 3.7134 -0.2988 11.2983
O -2.9984 9.4481 24.0969
C -11.3640 18.7003 26.0767
N -12.2548 14.9444 16.6174
C -10.0621 0.8316 7.7045
N -3.5776 -12.6706 3.6708
H 7.0559 -12.1207 -28.5288
H 9.0896 -14.3392 -32.2183
H 2.9023 -17.9477 -21.7522
H 12.6145 -2.9174 0.8855
H -6.4501 16.8094 18.8091
H -6.3515 21.5347 21.7058
19

F 60.2704 300.7104 -147.7127
H 41.7051 187.9981 -93.2853
H 32.0967 130.8255 -58.4271
C 10.9045 44.7552 -9.0488
H -18.4203 -81.3401 51.1297
N -39.1241 -179.0617 91.0808
F -46.8690 -217.4922 99.8339
C -44.2101 -185.9240 75.3831
O -26.0779 -78.9527 25.6337
N 65.7122 332.0398 -163.3767
H 65.0533 330.4356 -158.2174
C 63.3579 309.9962 -144.3827
C 46.5303 157.5578 -62.0103
N 34.7748 52.8210 -12.0973
F -9.6895 -70.9801 59.1379
N -46.8026 -201.2927 120.4325
C -77.2189 -302.2426 141.7567
C -75.9364 -313.7604 132.2716
O -36.0564 -216.0928 51.8985
23

N -30.5301 -42.8886 115.2273
F -31.4979 -36.3699 72.4891
O 37.8427 -99.1813 65.3486
O 23.7551 -149.6471 -69.1375
C -34.3728 -218.9412 -6.6228
F 7.9999 -158.1548 -7.7724
N -14.1458 8.1505 48.0785
O -51.4431 219.2191 -22.2861
F 75.1818 479.1186 -155.5285
O 72.2898 147.7188 210.9298
C 44.5321 -76.0991 -90.6912
F 49.8916 -258.1113 -267.0340
H 29.5633 -368.1302 74.1581
C 31.4884 -223.8212 445.0027
C 20.6693 138.1592 299.8468
O -159.8166 56.0588 213.2038
O -284.9773 -193.5399 -285.9162
O -547.3700 -268.2805 -413.5728
H -593.3976 -457.9160 77.2437
O -38.3521 -165.6711 -145.9042
F 317.4509 453.5440 -203.4324
H 466.0477 619.0215 291.9708
O 609.1907 595.7618 -245.6011
17

O 67.7594 4.3022 -7.3953
H 37.6160 -0.6015 -5.0128
C 19.6824 -1.8283 -2.9130
N -5.2409 -0.1446 -2.7865
F -32.1580 -0.9733 1.8680
N -42.9686 1.0306 9.5386
O -34.1422 6.0826 2.5239
F -28.0986 6.5736 -1.4159
H -3.9398 6.0916 -1.8868
F 73.2766 -3.8211 -5.4880
F 72.2172 -1.2311 -3.5561
N 48.9748 -4.2522 -3.2471
H 10.9241 -1.4678 -7.8404
C -17.1611 -8.4783 -1.3298
C -49.2470 -7.7659 9.9775
C -62.6421 -1.3549 8.6800
H -54.8521 7.8383 10.2838
18

H 187.3068 -34.4539 84.5498
C 104.8815 -21.1383 41.9449
C 63.3883 3.8869 20.1830
N 8.5378 11.6213 -16.4197
F -70.2305 13.7877 -39.9547
C -113.4003 4.8536 -32.1016
C -131.8952 13.5675 -34.2197
F -94.1864 -9.5059 -26.0865
C -22.2454 5.9350 -15.1510
C 210.3137 -28.2617 82.6663
F 201.0405 -23.2388 69.3371
N 177.9022 -24.3014 69.4598
C 67.2599 13.3251 -2.2316
C 6.9873 14.6701 -18.8087
C -99.4136 16.7652 -29.6552
C -142.9783 2.1255 -44.4575
F -201.0617 33.6322 -54.3162
H -152.2066 6.7299 -54.7385
17

N -17.4591 28.0191 22.6379
O -8.3093 18.0718 12.8532
C -3.3057 8.8670 7.3880
C 3.4023 -1.8348 -4.0921
O 9.1936 -14.3985 -10.1785
N 9.2269 -22.0370 -14.4831
F 11.1614 -18.7511 -11.5840
F 4.8896 -8.8976 -9.8806
C -0.9852 -1.4558 0.2840
F -18.6645 28.7864 28.7763
C -20.8269 30.7086 27.6495
O -19.7708 23.6185 18.4080
O -3.7884 8.7528 1.8773
O 11.6334 -8.0715 -10.3407
O 10.8745 -21.9306 -16.9243
H 18.8667 -27.7515 -25.5768
O 13.8614 -21.6957 -16.8140
18

C -174.3017 71.4886 62.0235
N -105.3913 38.7105 32.3158
C -65.2692 30.4477 14.9025
F 16.3230 1.6825 10.3314
C 81.1304 -21.5793 -15.6259
N 104.9872 -35.5564 -40.5877
F 104.7378 -62.1677 -47.8224
O 76.6031 -60.2050 -39.0838
C 27.1760 -36.3614 6.9209
H -191.1176 96.0387 67.2858
C -190.7212 91.4917 53.5321
H -164.0175 82.1105 66.0596
H -64.8146 36.6671 38.6099
H 1.2020 17.5727 5.3348
O 79.2720 -5.2736 -30.0423
O 153.1233 -52.0255 -57.9625
H 172.2831 -92.5847 -66.4641
C 138.7951 -100.4564 -59.7277
20

N -6.0223 199.1807 75.2598
F -3.5552 126.5462 43.7772
F 12.0573 93.3548 41.3455
C 32.1929 20.0171 14.3433
O 25.5770 -65.3893 -15.0572
N 2.9170 -117.8268 -44.0710
H -18.1800 -126.5601 -57.2406
C -39.9295 -105.9416 -57.7240
C -39.3149 -65.5312 -31.7059
F -8.5727 216.6187 72.3187
O 13.7291 238.0849 87.4745
N 34.4830 251.7536 91.3248
O 68.5570 128.0869 79.0265
H 44.7154 -7.2510 50.1809
O 2.7160 -156.5534 -7.5969
N -7.5700 -317.0515 -77.2062
O -22.4265 -387.0675 -111.0421
C -24.7485 -276.2636 -124.3923
N -45.5337 -45.2331 -91.8014
C -21.0913 397.0262 62.7866
15

C -28.7033 -8.7321 34.6126
N -9.3147 -6.6810 17.6593
H 0.4813 1.6023 1.2929
C 11.4567 3.3978 -8.0338
H 13.2333 -0.4517 -15.1774
H 12.1831 2.5904 -22.1854
C 8.8576 3.3537 -15.7987
C 6.5023 6.6076 -9.3441
C -4.7086 -4.0865 0.0830
H -35.2099 -5.6153 43.4277
C -26.4788 0.2645 31.7466
F -19.2452 -15.2095 16.9757
H 11.4094 -1.2024 -13.3651
O 38.7438 11.2053 -28.4816
O 20.7928 12.9569 -33.4114
14

C -14.4810 -1.8270 5.1485
C -6.9825 -1.5427 0.9771
C -0.8181 0.4393 0.2623
N 4.4605 1.1651 -0.4522
O 9.7434 2.6124 -1.3347
C 11.1176 2.1557 -1.8888
O 8.3956 -0.1832 -3.0596
C 6.0175 -0.7354 -3.9617
C 1.6998 -0.6475 -2.2192
H -13.9370 -2.4102 6.9139
H -13.5743 -1.7608 3.7033
H -8.8956 -3.6801 1.5312
H 3.0129 2.6971 -4.4065
H 14.2412 3.7172 -1.2134
19

H -84.7059 95.8532 -98.1959
C -57.0041 57.7284 -55.4027
H -63.2461 35.7883 -33.7230
N -42.5799 7.0185 -4.4418
H -11.2442 -33.8400 20.6332
C 35.4788 -51.7952 48.5712
C 85.0407 -62.4444 64.3469
F 97.4996 -48.6075 39.8299
C 84.9487 -13.4756 19.9634
F -78.7871 102.4323 -104.0129
F -106.4959 93.8010 -89.6537
N -122.1108 88.1013 -84.6877
H -97.0061 28.7412 -45.6703
N -87.7601 3.2420 -13.3972
C -49.6988 -45.8328 27.8485
N 20.8931 -69.6877 75.5443
F 106.8983 -85.2820 89.1636
C 177.6701 -65.6368 94.7570
H 192.2095 -36.1042 48.5271
16

F -26.7888 -33.9352 14.6801
O -13.5864 -20.2730 9.2789
C -5.1624 -6.5655 -1.0938
C 3.9998 8.7010 -7.8554
C 7.4003 16.1813 -7.8662
O 14.7996 23.4764 -7.1658
N 15.6771 20.7830 -5.4750
C 11.3583 15.0317 -2.1624
H 5.7704 1.6278 -0.6227
N -30.5913 -35.8426 13.8348
F -24.7247 -39.1213 18.0346
C -19.1879 -31.5777 21.6128
H 4.8757 -3.5931 -3.1596
O 8.1822 18.0599 -18.3375
N 21.3986 39.4614 -18.9258
N 26.5794 27.5858 -4.7769
22

H 208.6135 -177.1551 3.9110
F 132.6274 -46.3219 2.8855
O 96.0266 7.4456 -41.5320
O -14.4388 44.2163 -172.1625
F -39.0229 38.5556 -89.1300
F -123.9265 77.6300 -60.7145
N -112.8738 60.5222 130.8925
F -167.7388 6.3834 126.2872
C -74.8345 -90.9166 179.2796
C 220.0612 -142.9419 2.5381
C 188.8317 -207.5524 -175.2260
F 203.9659 -134.3234 -265.6065
H 88.7310 51.5122 -104.5023
N 33.1268 -20.0213 100.7775
N -27.1229 36.2181 51.4134
H 54.9409 225.3048 91.9638
H -0.7020 158.1218 -191.0018
O -136.9560 6.0722 -293.5615
F -358.1075 -34.7313 139.2126
O -306.5046 189.8426 251.8450
F 80.8601 -207.3101 242.4234
H 54.4433 159.4492 70.0076
16

F 19.1751 -24.7798 24.7420
C 11.1574 -14.5472 9.9913
N 5.0058 -11.2799 4.6062
N -6.1055 -2.7821 -0.9010
C -14.1346 8.8135 -14.2168
N -12.4630 15.9844 -26.2670
O -19.0241 19.9210 -19.9275
C -7.2864 16.2479 -11.5960
C 7.3897 8.4385 1.8175
O 22.6567 -33.3328 28.3543
H 25.1652 -28.5861 27.9727
H 14.0036 -23.1899 20.7739
C 3.9578 1.1936 -2.8624
H -15.2571 15.6022 -1.6004
O -18.5916 26.8633 -21.9480
N -15.6490 25.4334 -18.9387
13

C -4.2609 4.0975 -1.9529
C -2.1863 1.4810 -0.5977
C 0.2719 0.3967 -0.5339
O 2.5913 -0.2651 1.6064
C 2.7041 -0.8366 2.1087
C 2.4551 -1.9735 2.1873
C 2.5052 -3.8932 0.6684
O 2.9611 -4.8957 0.3909
H 0.7937 -4.5407 -1.6887
H -4.4998 3.2825 -3.4330
H -4.2896 2.1921 -2.2719
H -3.0546 3.3663 2.4235
H 4.0088 1.5888 1.0928
18

C 14.1224 96.4909 -88.7725
F 9.2561 59.6061 -52.7286
H 9.6451 34.4910 -30.6067
N 4.7317 3.2829 4.2486
H -3.4867 -35.6548 39.5009
F -9.3008 -60.3893 57.4254
F -13.4671 -71.2206 54.3919
C -6.7487 -53.3342 39.6676
O -3.2219 -14.7119 4.0637
N 19.4890 113.4949 -96.7113
H 13.8893 106.1453 -94.9584
C 14.8322 94.5020 -76.2262
O 7.7732 35.2610 -23.2743
N 5.8961 -3.0699 12.5694
O -12.0614 -41.8807 49.0148
N -15.8105 -77.7925 70.7532
N -23.0520 -99.5448 69.5063
C -12.4858 -85.6753 62.1363
20

N -80.8798 -20.9577 -83.1208
O -43.3258 -15.3070 -53.4330
O -18.7758 -18.0613 -39.6546
N 12.3269 -16.6488 -20.1031
C 25.7489 -0.3283 0.5145
O 43.3091 10.6608 32.8478
O 51.5953 19.0740 81.7705
H 23.2117 25.6984 74.1335
C -17.3442 27.1623 12.8718
O -92.5310 -31.2376 -82.9582
F -62.0972 -44.5085 -70.0253
F -44.1546 -69.1690 -19.6146
N 13.3002 -36.3273 2.4583
C 18.2120 -15.3943 -44.2826
N 0.7859 -11.8200 -139.3587
H -19.1352 54.4127 -197.2902
F -32.7744 102.9706 -175.1940
O 4.9077 94.2307 19.6464
O 48.9733 49.4192 203.8616
H 168.6468 -103.8690 496.9305
19

F 17.2309 96.0225 107.9688
N 33.1607 69.9186 54.3306
F 23.3072 49.2149 -14.5070
C 22.7483 18.1613 -58.7990
H 14.0628 -40.7367 -102.1543
H -12.5449 -65.3116 -66.5028
F -27.8936 -72.0624 -23.4131
F -55.1486 -68.0926 32.8411
C -53.9139 -28.5928 92.4660
H 33.1060 111.3011 131.1549
C 32.2695 113.9604 84.1788
O 63.7767 103.3042 49.9622
H 52.7753 62.5616 -75.8667
N 63.1636 36.1974 -148.0237
O 51.3619 -14.1424 -182.8718
N 1.7682 -59.1464 -122.6294
N -53.9867 -100.0060 -38.9219
F -80.6175 -121.3959 97.2630
N -124.6257 -91.1552 183.5244
23

N 18.9320 88.5566 -90.9765
O -1.0819 10.1207 -41.6667
C 40.9862 -12.1951 -25.5651
C 184.8087 86.6473 -72.9841
H 164.3636 78.8682 -24.9259
O 103.0753 97.7203 83.4468
N -99.5435 41.2173 147.2337
C -213.0097 -74.4454 100.4314
C -242.4345 -200.2848 -25.1637
N 47.3983 58.1392 -58.5140
H -16.7318 -103.3183 -101.4484
N 29.5020 -210.0455 -17.3650
H 229.8812 34.6895 -111.7255
O 276.2302 156.9078 -199.3245
C 325.7111 363.9180 -245.9146
F 177.8163 211.8199 70.0417
O -58.2382 43.5979 52.3638
N -211.4305 -22.1716 177.1745
F -573.8432 51.3941 85.8309
C -350.4079 -54.1213 52.0686
O -605.8680 -251.5380 -134.6771
H 289.6002 -274.9727 245.2741
H 484.2841 -120.5044 136.3854
19

F -30.3812 -86.1944 -29.4840
F -9.7165 -54.8006 -11.9297
H 19.4638 -12.4025 -28.9584
C 48.7072 -1.4455 5.0062
F 59.1921 46.0566 11.3633
N 11.3464 78.6373 9.9352
F -30.7611 29.2205 -2.4615
F -35.0612 -2.6954 -24.1917
H -52.7859 -24.2550 -17.3555
F -54.8635 -74.5058 -10.9093
F -19.0941 -78.1690 -7.3827
N 5.3562 -75.1210 -9.6790
N 73.7641 51.5201 4.5969
C 94.7969 32.8373 56.5490
N 97.1724 70.8897 65.8546
C 32.9836 66.5870 29.5114
N -10.0455 47.4898 3.6447
C -73.4158 2.8361 -27.6268
F -126.6579 -16.4853 -16.4826
10

C -1.2166 -0.3762 -1.0048
C -1.7167 0.5202 -0.3472
N -0.8060 1.0218 0.3604
N 0.1576 2.2389 -0.2072
C 0.4728 1.1831 0.3386
C 0.3328 0.0768 1.7423
O 0.8311 -0.8557 2.2950
C 2.2296 -1.6678 0.5110
N 0.8394 -2.4815 -1.7800
H -1.1241 0.3405 -1.9080
16

F 36.6146 -11.7676 49.8159
C 19.7869 -8.3751 18.0458
N 13.2207 -5.6726 11.2932
N -8.9906 -6.2070 -3.2906
F -24.1673 0.1894 -29.0001
N -29.2980 8.7879 -38.8088
O -38.8683 12.0985 -33.4744
C -16.2960 9.9936 -20.9308
C 10.2448 2.1354 9.5712
O 33.2083 -13.3084 59.2869
H 47.1982 -10.9434 58.4083
H 31.5912 5.9788 36.5849
F 2.3210 -5.7342 -12.1845
H -18.1318 0.9935 -14.6793
H -32.6823 8.1066 -49.2109
N -25.7515 13.7246 -41.4268
16

C 17.8892 -3.6838 -73.8067
N 4.3378 0.1533 -44.2297
C -2.3097 1.8867 -18.1138
O 4.4495 -5.8775 11.1465
H -4.0942 -9.9352 48.5986
N -8.1801 -3.7491 53.2609
F -12.1973 0.0180 36.1985
N -15.7541 2.2990 27.1633
H -7.6369 4.8075 -9.6295
N 19.8121 -0.2433 -81.1387
H 18.2298 -7.0339 -81.7065
H 11.8938 1.1218 -55.0551
H -9.7652 -2.7375 -6.3883
N -2.0469 7.1802 35.8650
O -2.9932 8.5046 68.9284
H -11.6344 7.2893 88.9071
12

F -3.5631 -27.1084 -6.1528
N -0.1170 -16.6575 -4.6244
C 1.3639 -13.2230 -0.9770
N 5.2886 1.6668 10.7750
C 3.8818 14.3920 11.7266
C -0.4396 28.1245 6.5148
O -5.9163 33.1780 3.3239
C -2.5931 32.9889 -2.5582
N 4.0222 20.0933 -4.5671
H -0.1048 -31.9575 -5.5406
H -3.9645 -26.8778 -0.4300
C 2.1419 -14.6191 -7.4901
21

O -32.4990 -194.4193 191.3835
C -34.3567 -121.2771 115.5682
H 28.5810 -66.4639 129.3895
N 54.1361 -13.3700 132.5719
C 37.1796 99.1923 90.1452
C 13.2224 162.6925 8.5122
O -5.2940 170.0442 -120.5592
C -57.8825 85.5851 -313.8661
C -76.2477 -68.6562 -422.1852
O -49.9634 -206.3271 208.4750
F 27.3199 -239.2865 244.4634
N 89.5758 -210.4091 275.2016
C 118.2623 -93.5387 260.3968
H 85.5604 -108.7288 262.7549
O 48.3273 -20.7157 78.0113
N 10.0771 203.8672 -38.9251
F -103.3790 370.2450 -133.5520
O -120.2087 404.2547 -62.8612
N -94.1796 304.7502 -127.8604
H 133.7274 -33.7452 64.3164
C -71.9587 -423.6937 -841.3809
19

F -28.9910 75.3680 36.0564
N -15.0254 56.9590 29.8479
F -18.7081 44.8023 73.8633
C 1.2206 20.7281 63.0790
H 6.3414 -21.6289 54.9984
C 17.3625 -41.6244 -4.7170
F 30.7197 -50.1864 -82.4581
C 16.7552 -53.2505 -110.8898
C 13.7210 -20.7133 -117.7045
O -25.8963 90.8022 25.3444
F -32.7672 74.3747 66.3143
C -35.1596 81.2115 86.4426
C -14.2431 41.1785 150.8691
O -21.2626 16.1440 182.7714
N -16.8687 -34.2439 128.1336
N 3.3126 -62.5092 42.0081
C 9.2565 -69.3523 -107.0605
N 50.4903 -93.4899 -224.5975
H 59.7423 -54.5695 -292.3012
16

N -27.7303 23.2281 32.7586
O -12.4906 11.8153 20.2471
C -3.6223 4.9913 5.2823
O 12.9600 -2.7798 -5.6319
H 17.0832 -9.6155 -13.1487
N 18.2163 -10.2495 -19.5843
N 15.4572 -16.5643 -18.8245
N 1.8055 -11.9062 -11.9614
C -9.5873 -5.5601 -10.2702
H -32.0329 27.2156 36.2065
C -21.0460 26.4355 30.6792
O -25.5251 11.7701 31.6373
H 3.6252 7.0965 1.7553
O 19.4859 -10.3987 -18.9326
O 22.3205 -23.3650 -28.3343
C 21.0805 -22.1134 -31.8785
20

N 10.9533 -20.6126 88.7133
O 6.5355 -16.6033 58.0595
C -1.6264 -13.4567 48.3025
N -13.5759 -12.7968 27.1580
C -20.8163 4.1788 -9.2472
H -6.1911 10.2274 -46.5782
O 8.6203 15.8481 -72.9225
N 7.6615 20.9030 -78.7061
F 3.8690 19.3381 -46.7042
F 10.9549 -21.8061 98.8796
N 19.7183 -30.9684 99.4357
H 30.3198 -27.8896 106.1034
H 1.1459 -22.1763 76.8614
O -27.1491 -13.1519 58.2814
O -37.7704 11.8137 17.2603
O -82.9088 35.5715 -33.4124
F -87.2424 49.5209 -98.0433
N -27.6101 40.6941 -129.9050
F 45.4530 13.9590 -130.6874
O 159.6591 -42.5929 -32.8488
18

F 57.0708 -153.5529 155.1667
C 30.0050 -86.3897 91.9641
N 21.6606 -43.1736 50.5666
N 2.7575 -4.7142 -8.6802
H -13.6599 53.7176 -75.5717
C -35.7875 86.6242 -93.4481
N -40.5319 88.6172 -93.2905
F -36.8674 73.1514 -43.7629
C -15.3370 17.2478 1.9385
N 61.3776 -155.5332 158.6508
N 57.3040 -156.6867 154.7940
H 54.9982 -124.1153 143.3525
C 14.6266 -45.3662 49.9175
O 8.8427 4.7639 -19.1221
O -18.9457 66.7056 -80.4792
N -30.4920 116.1974 -141.2339
C -56.9436 145.0655 -151.1048
C -60.0780 117.4412 -99.6574
19

F -71.3847 51.7552 -82.2464
C -44.9789 33.0637 -54.7570
F -36.0624 23.0851 -51.1530
C -15.9877 5.6492 -31.2480
F 13.4705 -14.1291 4.6320
H 38.0037 -31.2091 45.6847
O 55.2363 -36.7943 74.5726
F 51.8389 -33.9741 80.1860
C 31.2560 -16.7488 55.0230
H -76.4683 57.9175 -89.8923
H -81.9481 58.6152 -100.0281
O -82.0698 55.4002 -98.5682
H -50.3166 31.0008 -84.0908
O -23.8607 8.6158 -70.2589
N 5.7295 -13.8565 -25.3757
N 45.1924 -36.3656 41.0942
O 77.2259 -52.0105 106.6921
H 89.5366 -51.1819 145.0797
N 75.5873 -38.8326 134.6541
18

H -66.2565 136.2169 55.3308
O -36.3642 87.9615 27.1378
O -23.3852 58.1382 9.9873
F 8.8983 10.0948 -0.1013
O 33.2391 -55.7207 -21.0183
N 39.1588 -88.3361 -42.6617
N 39.9736 -100.1496 -34.4887
N 24.5635 -80.2419 -24.3845
C 6.5265 -25.9990 10.3803
H -80.0487 162.7738 56.6555
C -74.5075 160.1125 56.6921
H -56.5400 149.4467 57.2597
O -26.6850 51.5382 32.6025
O 6.5020 0.1725 -13.8686
C 31.9713 -67.7797 -39.1799
C 60.1670 -119.7756 -51.4072
O 61.1979 -143.6361 -47.9022
H 51.5891 -134.8163 -31.0334
21

H -53.1428 214.1956 87.5394
C -32.6328 134.0758 56.2674
N -28.3866 104.1146 49.6901
C -20.6481 61.8279 24.9548
O 1.8077 -17.6809 -9.3937
C 24.7803 -99.7082 -32.8961
N 42.2882 -178.3863 -64.6845
C 48.0950 -182.8966 -77.3947
N 29.5934 -115.7874 -93.5415
F -60.5398 234.1760 103.1072
N -59.1611 213.0739 126.2838
H -55.7986 178.8113 151.4086
O -49.7855 118.8461 117.3838
O -17.7944 112.2478 25.3904
F 19.8552 77.5286 -86.0945
F 58.6075 65.3147 -172.2007
H 64.8189 14.7952 -193.0724
C 72.5500 -135.2343 -77.6845
H 57.3392 -235.0747 34.8095
O -26.3024 -412.1656 204.3795
O -15.5434 -152.0736 -174.2520
19

O -11.0165 -16.0519 -67.4768
N -6.9709 -9.5322 -41.0766
F -5.4637 -9.9730 -17.2350
N 3.7880 -4.6229 7.3449
H 3.1390 1.3529 34.5487
N 5.7452 8.8684 45.4688
F 6.2877 15.2483 34.9406
N 3.0148 11.2205 15.4613
H 3.0205 9.2069 -11.4346
O -9.4613 -14.7880 -70.4644
F -10.8821 -15.7038 -66.2678
C -13.6087 -14.6226 -54.7656
F -3.1685 -15.2673 -7.4095
N 4.7120 -11.2086 27.1940
O 4.0277 -0.5655 55.3403
O 7.1018 8.8756 64.6268
C 4.2893 18.6884 48.2173
F 7.4534 18.9212 24.1624
F 7.9923 19.9534 -21.1747
18

F -22.0243 134.5490 -1.5582
O -9.6827 85.3549 -3.1710
O -2.4688 51.9342 5.5289
N 11.5792 5.5712 11.3644
O 15.4142 -49.8489 8.3300
F 9.4362 -83.1879 1.5398
N 3.8538 -94.2537 -7.4090
C 0.8385 -79.1843 -12.1171
C -0.5775 -33.5358 -3.3846
F -22.5025 157.0749 0.3080
C -18.6938 154.9170 -1.7729
H -13.7706 134.3248 7.3375
H -0.2221 49.8373 26.8646
N 5.1553 4.1307 13.7229
C 8.3094 -52.6978 5.9594
C 16.7848 -112.1741 -12.7263
O 5.6730 -143.5449 -17.6565
C 12.8981 -129.2667 -21.1599
16

C -8.6970 0.9412 -11.1339
C -3.7553 0.6836 -6.4432
C -1.7098 0.1063 -2.4343
N 0.6306 -0.9755 2.9534
C 4.3721 -1.9817 6.7764
O 4.8472 0.2476 8.3228
O 3.5859 0.5618 6.6574
C 2.3928 -0.5222 4.4921
N 0.1503 -3.7167 0.4462
H -9.9208 0.4825 -12.9155
H -9.4169 1.9227 -13.0299
H -6.4813 -1.4382 -13.2755
H 3.4570 1.5705 -2.3413
H 5.8654 3.2679 7.3098
H 8.3548 2.1837 12.1954
H 6.3251 -3.3334 12.4200
22

C 27.4507 6.8369 94.1084
N 11.6742 16.7641 88.5896
N -14.4670 83.7037 44.3151
O -53.4863 16.7765 -101.3385
H 9.1570 -25.3747 -11.5775
N 14.4611 -64.9678 -42.1323
N 41.4010 -115.5246 -90.9099
F 16.3173 -36.7318 -136.8466
C 93.5323 57.9695 -31.3065
O -11.7675 38.3669 122.5519
H -47.5538 5.3979 74.5587
F -96.6629 -28.0978 39.5290
H -235.3806 139.6389 146.7520
N -274.2575 32.8474 326.7335
O 23.0373 18.9219 182.0347
H 345.0460 98.6103 24.8115
F 433.7437 112.3833 -202.4583
O 225.2287 -3.0560 -277.5586
C -159.0908 -284.0546 45.5721
N -315.0792 -107.4975 229.9305
F 259.7517 199.4067 -212.9362
H -293.0553 -162.3191 -312.4224
19

F -22.6524 36.8319 144.4273
F 5.9880 31.3808 75.6620
H 11.7727 33.4094 13.8137
C 17.7288 28.4128 -41.7910
H 25.3567 1.6455 -91.4283
H 13.1472 -30.6620 -74.3764
F -0.0951 -56.8497 -52.2704
O -27.8891 -58.0753 -13.4278
H -42.0516 -39.6700 37.1742
H -10.7424 45.1766 168.5773
C -4.8319 49.7418 135.0532
H 14.3495 48.8191 101.3946
F 47.5286 73.4041 -35.1711
N 61.0800 62.7127 -84.0793
O 37.0072 37.6643 -136.5817
O 31.1778 -8.0966 -136.4048
N -35.5691 -49.6408 -99.9384
C -46.4053 -90.0806 -4.4280
H -74.8997 -116.1241 93.7949
17

F -30.4749 29.2463 -52.7189
C -19.6293 18.6690 -32.4529
H -11.7943 10.0145 -11.7144
N -0.2840 0.5112 6.8080
C 18.4091 -11.3243 16.9921
O 23.9121 -17.6792 30.6583
F 16.9358 -20.4345 30.1023
F 10.3341 -19.6229 21.4339
C -3.9181 -7.1042 3.6829
F -29.5970 28.6933 -60.2626
F -29.4386 31.0229 -56.3752
N -26.9844 29.9196 -56.0407
H 5.5703 7.9038 0.8697
C 16.2711 -6.3738 26.2240
O 19.3079 -18.0575 43.5562
O 25.6049 -24.6650 47.2628
C 15.7753 -30.7193 41.9745
19

C -122.1663 -64.5227 -112.2086
F -69.6985 -36.4916 -71.4641
F -36.5825 -18.2092 -61.1686
C 9.8223 10.8041 -36.3387
O 49.2870 27.7970 8.7839
C 66.9739 39.0158 60.5489
F 71.8568 33.9965 94.1348
C 44.6726 13.8653 99.3979
H 4.2088 -4.8600 70.8012
F -134.2713 -72.0001 -123.5393
N -131.2946 -68.0857 -131.3606
N -118.2241 -56.0451 -132.0554
F -29.8627 -10.4515 -104.2279
C 21.2573 15.1682 -70.3126
N 71.5694 45.3786 -24.3160
F 101.9452 70.7949 59.1354
N 102.8974 56.2257 124.7122
C 76.4369 25.7512 183.1622
O 21.1724 -8.1316 166.3151
17

O 36.3216 16.5103 24.5315
C 20.9747 5.7182 15.2294
O 13.6871 0.5151 6.7281
N 0.6482 0.2286 -1.5006
F -13.0616 -1.9578 -9.7515
C -18.7762 -5.5607 -12.5609
C -26.3373 -8.9260 -15.3167
H -24.4230 -6.0083 -17.0230
H -6.8836 0.9679 1.6695
H 39.0860 18.3009 32.2749
F 41.2968 18.6752 24.0992
N 29.1318 10.1630 21.2431
H 15.1195 -3.1272 -0.3290
H -6.0219 -11.7111 -9.8456
H -24.6232 -13.1877 -21.0784
C -37.3185 -12.8896 -16.6921
F -38.8203 -7.7110 -21.6779
21

C -59.9058 20.9250 80.7249
O -37.1000 -5.2798 55.3785
H -32.1703 -10.3572 63.4208
F -10.8075 18.7848 47.3088
C 7.4872 48.4340 10.2766
C 48.1291 60.5133 -29.0770
F 68.2454 16.8038 -76.2431
N 54.3083 -53.8130 -105.1037
N -41.6664 -122.5389 -104.6133
N -54.3714 28.8506 97.0158
N -13.5862 11.7934 119.1076
H 40.2168 10.2350 140.9521
H 10.7117 -32.4847 116.3726
H -61.2849 -27.6516 81.3392
O -95.1411 23.1987 36.0956
O -166.9358 189.7052 22.1542
H -152.3621 282.1345 -44.0398
H 26.6647 230.5386 -112.5321
F 221.4339 80.4238 -203.5078
C 439.9904 -299.0235 -68.1367
H -191.8562 -471.1920 -126.8931
17

N -163.2909 105.3358 -88.4662
H -96.8337 62.9579 -59.4260
C -46.8930 28.5762 -14.5226
N 7.3158 -28.1629 -3.6665
O 82.0326 -48.8174 4.1033
O 105.5800 -90.5293 77.1056
F 106.2256 -55.1050 66.9672
F 57.1834 -45.4426 17.4460
C -7.4194 8.1852 40.6935
F -183.7818 102.6986 -79.5249
F -161.1225 119.9919 -71.4928
H -168.4396 99.6653 -109.2495
C -5.0328 39.8844 18.1846
C 49.0166 -37.7104 4.6720
F 120.9712 -45.9741 65.0544
N 166.4068 -103.4821 65.0842
H 138.0816 -112.0714 67.0377
17

N 7.9651 5.7002 27.3723
C 4.8682 3.8832 16.9447
O 3.7621 4.5433 9.2568
O 1.6241 2.8618 -1.4384
N -2.2871 0.0270 -14.5339
N -3.4565 -3.4568 -19.5348
C -5.3576 -8.4615 -17.4929
C -7.1966 -5.5515 -11.5550
C -5.8548 -4.3410 0.0757
H 7.5586 8.9846 30.7876
H 9.5402 8.9093 28.8558
H 6.3461 8.5559 25.5148
H 1.6053 4.6081 9.7343
H 2.2318 0.5269 -8.1869
H -3.6656 -7.0979 -22.5017
H -8.1269 -8.8333 -28.1375
H -9.5566 -10.8581 -25.1611
16

C -57.1166 10.9069 13.5664
F -26.6892 10.6260 1.3022
C -1.0859 9.4988 -1.5400
O 22.0127 -2.3765 -1.8724
C 25.6279 -11.6137 -1.7785
C 26.6057 -11.7901 -3.1262
C 19.4485 -12.7450 -2.2484
C 15.8994 -10.2093 -10.4688
C 6.2173 -7.0483 -22.6043
H -58.0029 1.9554 19.1757
H -53.6502 22.0487 16.1404
F -58.1137 3.1662 5.8110
H 3.6653 29.3695 -25.6557
O 55.1079 13.7277 9.8731
O 42.0464 -28.2861 6.0999
C 38.0273 -17.2303 -2.6741
18

F -67.7663 -161.3291 -25.4375
O -41.5454 -93.2465 -19.2348
F -37.1202 -66.5060 -12.1105
H 3.1886 -9.8156 6.4697
O 37.8455 58.1794 21.7329
O 42.8262 98.4134 22.0104
F 47.8160 116.5430 16.0673
C 33.9747 93.9669 6.7531
H 6.6357 25.7457 -0.8231
F -83.4957 -173.2119 -38.6668
N -90.1919 -178.5126 -32.4127
H -77.6507 -168.8141 -20.3560
N -24.1210 -62.9043 -4.5501
C 8.5267 -9.9095 21.4213
N 40.1150 71.0421 15.3989
C 70.6098 134.7784 9.2066
C 64.3273 172.0649 11.9563
N 66.0258 153.5159 22.5752
21

N -134.0238 -86.8901 -294.5942
F -88.7207 -54.0519 -155.4864
F -44.9556 -7.1117 -51.3125
C -4.6501 37.7765 48.6376
H 48.6352 81.7076 110.0660
H 54.1333 82.9735 114.2077
F 90.0377 46.5127 75.8498
O 73.8634 -37.7783 51.8500
C 43.1051 -92.1830 2.1883
O -140.6531 -83.8846 -336.8332
F -157.9690 -81.8293 -229.7319
C -164.6952 -57.8417 -152.5601
C -54.7649 12.1350 137.3024
O -51.5248 74.9811 259.4089
O 45.8526 106.3276 243.6677
O 62.9300 217.4102 158.5344
N 113.2720 282.0273 -57.8182
H 132.8659 118.9911 -254.9781
F 171.6854 -29.5974 -322.8974
H -13.2161 -283.2292 252.5352
H 18.7927 -246.4456 401.9639
17

F 66.8144 -39.3332 148.8787
C 28.3549 -18.4873 80.8802
O 17.7607 6.0700 49.4376
N 13.6053 3.1620 -3.6709
F -18.8930 5.7799 -86.4970
C -33.1807 20.7995 -102.8610
C -57.7875 12.6541 -88.9391
F -34.5275 18.9000 -65.6236
C -3.3047 29.3395 1.8801
N 61.1031 -34.5241 168.5761
H 62.5551 -33.9700 145.0660
H 52.6248 -20.8862 133.2422
N 7.5629 -21.1130 36.1460
O -13.6791 11.1323 -59.8133
O -34.1236 6.9393 -90.7358
F -35.8673 19.3224 -137.9944
C -79.0177 34.2151 -127.9718
19

F 52.4098 -58.5472 -27.6746
F 36.6508 -34.9345 -17.1802
C 36.3802 -19.9725 -16.8754
C 23.1058 2.8308 -14.0647
O -2.4048 19.9325 -5.9746
C -28.8081 34.4610 12.9420
N -51.1279 34.3495 28.5216
C -58.0743 25.9476 32.0509
H -41.8790 7.4350 22.6798
H 56.5327 -62.7533 -30.8941
N 62.8587 -59.2661 -34.1820
N 61.8740 -50.0263 -30.2190
H 53.7504 -17.2084 -26.4254
C 56.2106 2.5625 -23.1654
N 23.9365 26.0783 -14.3338
F -29.6612 44.9472 5.1164
N -72.4215 46.0161 29.7155
N -94.7253 39.9126 56.1777
F -84.6074 18.2352 53.7852
20

N 86.1858 200.2083 162.1021
F 52.9211 127.7754 103.3801
F 42.1796 101.5710 64.9393
H 17.2694 39.8487 17.0172
F -10.9576 -42.7415 -33.3574
O -48.3036 -112.5483 -84.2894
H -69.2118 -151.6803 -122.7189
O -65.7003 -142.9157 -107.3553
C -36.5032 -87.8031 -28.8953
H 93.2307 225.6116 178.6388
C 88.7768 239.9404 160.3808
H 82.2780 241.6361 110.7874
N 55.2829 135.7365 33.5924
C 48.3435 61.4536 37.4877
H 15.7209 -36.0869 52.9099
O -3.3785 -183.0918 51.6832
H -34.9708 -286.8503 17.0985
C -70.4335 -284.8534 -97.9326
H -111.3482 -181.4772 -181.8819
C -131.3810 136.2672 -333.5865
11

N -2.8558 2.6121 2.3083
C -1.6752 1.5212 1.0637
C -1.1440 1.0896 -0.6812
N -0.1775 -0.1966 -0.8431
C 1.2959 -1.8449 -0.2389
O 2.7188 -2.3665 -0.9012
C 2.4180 -3.2596 -2.4065
C 1.9638 -2.3147 -0.9434
C 1.1132 -1.4993 0.6323
H -2.3280 4.0245 2.0447
H -1.3292 2.2343 -0.0346
20

F -226.1068 -33.4576 54.2090
C -148.9744 -15.1646 37.5170
F -100.0749 -17.0830 41.7573
O -29.1729 -15.2472 47.7532
H 49.2231 -5.6369 16.1910
H 126.0482 20.1271 -19.7797
F 170.7682 41.5003 -70.9873
N 147.5750 35.1274 -94.4949
H 56.3775 18.5829 -73.8481
O -240.7473 -32.6454 48.4462
F -218.5168 -33.7872 66.0582
N -191.2641 -31.5169 73.3623
N -85.9654 -39.8889 93.2859
O -74.8793 -48.3389 129.7565
O -22.4178 -52.9578 109.6253
O 33.3418 -35.1387 60.8046
F 93.4354 5.8571 -29.4931
O 192.8170 36.7389 -153.0321
N 228.7229 75.6543 -227.2432
H 239.8105 127.2750 -109.8882
10

C 1.8712 2.3107 -0.2246
C 1.0399 1.6611 -0.0540
C 0.6454 0.0537 -1.2258
C 1.3900 -1.8622 -0.9594
O 0.1324 -1.8749 -0.5302
C -2.1261 -1.5694 1.8159
N -2.8310 -0.5061 1.5043
C -2.2995 0.1032 -0.3056
N -0.5369 -0.2906 0.3207
H 2.7146 1.9745 -0.3415
18

C -82.7542 58.5381 -22.8790
O -50.7573 35.8238 -17.9746
C -28.0792 24.5889 -11.0501
N 8.8250 0.9756 -5.1047
C 36.6754 -19.7407 9.5994
N 52.1817 -31.7979 14.5984
N 49.8928 -43.1822 17.8428
F 36.2301 -35.1941 11.1525
C 6.6002 -16.8158 7.5776
H -92.4437 65.0867 -23.6710
F -89.0634 64.1090 -20.4842
H -79.8166 55.4870 -16.1856
C -23.2323 27.4469 -12.7263
C 18.3527 2.8492 -2.7689
O 44.8578 -25.5311 1.7734
O 75.2132 -48.9526 16.1779
N 67.4146 -59.3815 22.7005
F 49.9033 -54.3092 31.4219
20

H 86.3077 15.1497 65.3484
F 54.0054 13.7801 41.8047
C 38.5946 18.6787 35.2680
N 19.9526 1.6009 8.3478
O -19.3404 -16.6403 -19.4382
F -48.5603 -10.3629 -36.1061
F -70.2023 1.7893 -47.0686
O -62.6545 1.3849 -41.6853
C -22.0351 -25.2389 -20.7129
H 86.2558 18.9121 69.3308
N 89.6408 40.1461 67.3151
F 89.4671 78.7588 56.9779
H 62.3384 52.2284 34.2308
C 14.4038 -31.4624 35.6594
F -33.8205 -116.1327 -1.7409
O -33.7266 -207.3409 -42.6427
F -20.1030 -236.5657 -61.7249
N -21.2929 -111.2929 -83.9112
H -68.0539 77.3313 -63.4698
C -141.1769 435.2763 4.2176
18

F -43.2617 -138.9855 41.7919
O -23.7078 -81.2094 23.2531
H -18.9074 -51.8202 14.4192
H 2.6208 -2.9044 -0.9365
O 25.3993 53.7208 -16.6932
H 24.6451 90.9810 -18.2259
F 23.8881 95.3239 -25.5567
C 19.0798 68.0268 -18.9593
H 6.4394 14.0678 2.3959
C -46.7809 -154.0402 45.6490
N -52.8228 -149.2698 45.9397
H -43.0789 -129.8759 37.9570
F -17.0176 -52.5549 7.8566
H 4.3365 10.4693 -7.2370
N 31.0618 70.8289 -28.7266
F 40.7130 114.0953 -39.4329
N 35.6295 132.6254 -43.9233
C 31.7637 110.5213 -19.5709
17

C -160.9934 65.4053 39.1449
O -82.5049 44.1505 14.1548
C -30.2180 29.9703 10.3459
N 37.0691 -7.1491 -18.0854
O 78.1269 -39.0515 -23.3387
N 83.8915 -53.1723 -4.8686
F 82.7909 -39.8378 -6.2759
F 38.2653 -32.9733 -26.5767
H 1.8983 -6.6212 -2.3825
H -175.7704 48.0051 56.6416
C -157.5278 92.0632 54.2028
H -147.4686 60.8207 10.5631
C -11.2204 51.8811 -3.3056
C 79.7626 -1.9187 -11.2394
F 115.8633 -40.8921 -10.1039
C 140.5698 -85.4422 -48.2189
H 107.4659 -85.2380 -30.6574
22

F 225.3585 262.2090 63.4013
H 126.1507 163.9800 -5.2996
N 110.1946 92.2341 -19.3165
O 36.2084 59.8657 -149.2831
C -79.3796 -29.2134 -65.0733
N -80.7277 -76.8740 19.5641
C -111.4313 -106.9770 58.2796
F -180.4932 -125.2947 14.4275
C -77.5368 -139.5983 -72.7161
C 195.9803 302.9352 89.5062
O 290.4125 211.4499 -52.6353
H 331.1544 110.3073 -138.6947
H 132.3221 83.2291 -9.1242
H -194.3105 -39.2820 108.1482
F -314.5898 -200.0367 84.3081
F -195.9547 -252.9354 7.3105
O -33.5378 -141.5466 -149.2774
N 199.6492 101.4220 -155.7502
F 114.2549 -72.2207 110.7339
C 212.4593 443.1982 353.0042
F -162.3588 -463.0258 -92.2483
H -543.8250 -183.8260 0.7352
22

O -21.2396 36.3128 -123.6843
N 19.3265 -6.0444 -79.2298
H -9.1131 -34.5553 -90.4888
O -34.5435 22.0960 -57.6688
C -92.8195 94.4827 40.7678
O -128.6495 121.3549 134.4573
F -99.6863 107.1081 166.4955
C 90.1213 -77.4753 112.2690
N 469.1685 -252.2670 -69.5003
O -37.4125 53.6347 -107.9489
C -36.9935 -29.3548 -149.8611
H -46.4467 -141.6875 -285.1293
C 190.9357 -94.6177 -112.7204
N 62.8871 127.3067 63.5935
O -224.8053 229.9127 48.3043
C -347.9339 195.8447 97.0500
O -272.8344 192.6012 146.9068
O 50.7972 80.2428 -38.4421
H 380.7296 -82.7244 -15.0186
C 238.7182 221.3365 -75.9344
F 863.6317 -487.5088 33.8324
N -1013.8381 -275.9986 361.9502
18

F -22.6365 -46.2760 -104.6254
N -14.6790 -23.9890 -63.3758
F -9.7324 -15.1708 -43.5729
O 8.1023 -2.3130 -1.1694
H 14.0744 18.1123 41.7539
N 14.4047 27.9251 71.2184
F 14.4777 33.2836 67.5951
N 6.4509 21.1231 48.1333
C -0.6081 6.0746 4.8775
O -27.6622 -46.8588 -115.6061
N -26.9143 -48.6340 -111.9653
H -26.9192 -43.1920 -102.3003
H -2.6896 -16.2773 -40.2614
F 3.7186 -3.7762 16.3725
N 13.5565 19.2769 62.9388
O 21.0354 39.2403 97.0845
O 21.9381 45.2798 98.6919
N 14.0825 36.1715 74.2108
17

F 14.1005 45.8511 -125.4978
F 11.6417 25.6034 -74.7237
H -2.4722 15.4427 -28.9311
C -2.2258 -5.3499 19.5637
H -12.8384 -30.3596 62.1978
N -16.6193 -36.7342 88.6000
F -21.1153 -27.8654 78.2781
C -20.2885 -31.1659 52.8461
N 5.8772 -2.1597 -9.1729
N 32.5032 61.5622 -152.7758
H 36.4147 61.0473 -139.8511
N 19.9390 45.1557 -105.1277
F 12.4282 8.1205 -15.0416
N 2.6797 -3.5982 45.1115
O -12.4324 -39.6733 101.2026
O -21.3630 -53.5970 124.1022
N -26.2294 -32.2796 79.2196
19

N -89.0945 90.4182 67.4351
C -56.2281 57.2046 45.0158
C -41.0282 42.7436 37.7576
C -14.0557 15.0303 17.2426
N 22.1224 -19.6514 -12.8546
F 52.3061 -49.5081 -42.6471
F 65.2569 -66.1240 -58.4005
C 60.5774 -64.9537 -54.4204
O 31.6438 -35.8567 -30.4694
N -96.5330 98.8957 71.3814
F -99.2210 98.5212 79.2550
F -90.1452 94.8845 82.3119
C -52.0291 53.3072 60.6001
H -27.7610 32.4543 34.4132
H 7.3680 -9.5330 -3.6151
O 55.9845 -55.5639 -44.5862
C 86.9136 -92.9999 -81.7276
C 105.6824 -107.1187 -94.0880
O 78.2406 -82.1504 -72.6037
14

N -5.8746 -10.8358 -4.0492
C -3.4243 -5.4196 -2.0846
C 0.6517 -1.1405 -0.1646
C 2.8512 2.8441 2.4598
C 3.7566 6.9368 3.1080
C 2.4547 8.7865 2.0572
N 0.5733 7.8423 1.3313
C -1.3048 6.0258 1.9289
C -1.1791 -0.0992 0.6611
H -6.4952 -12.4979 -4.0873
H -5.5418 -10.5939 -0.6201
H -1.9032 -5.9213 -1.6095
H 5.9861 5.5302 0.9756
H 9.4492 8.5424 0.0934
22

F -298.6303 -20.1358 120.9408
O -135.7843 -10.1032 56.9619
F -63.4987 72.5855 48.4600
O 48.9322 87.1721 21.0456
C 120.5934 45.9203 -35.7130
C 148.3815 22.0652 -110.3434
F 162.4354 0.9973 -170.5594
C -9.7824 -54.9828 -124.5320
H -25.2799 -138.3985 108.5760
O -296.9028 -27.6099 72.6682
F -231.3606 105.8555 107.1338
N -85.5290 199.9358 83.1993
C -10.1675 136.5786 184.1100
O -3.5445 17.8333 195.4443
O 159.1383 -126.3285 117.5218
F 107.7170 -195.3136 113.2287
F 77.7704 -9.1909 -41.0121
F -13.3984 123.8875 -103.0202
N 141.1047 25.5649 -111.6457
F 403.5001 -92.3827 -61.8548
C 42.8774 -430.6157 148.9118
O -238.5720 266.6656 -619.5217
17

F -9.2493 88.0058 -31.6363
O -1.8916 53.7473 -22.9359
H -4.7781 21.7807 -5.9565
N -6.6262 -3.8946 -7.0476
O 1.8075 -39.5397 6.4606
O 6.3232 -63.2303 26.7096
F 7.6876 -52.0249 24.4240
C 11.8016 -31.5361 13.3378
C 3.2152 1.9181 7.9917
F -11.6890 91.8068 -31.3633
C -17.8088 96.0499 -32.9162
H -20.2121 73.0352 -29.4813
H -3.5615 21.9416 17.7998
H 6.8019 -33.6523 5.6016
O 0.2632 -68.1115 14.5135
N 25.2188 -83.6731 20.3636
O 12.6975 -72.6229 24.1348
17

F 7.9752 -87.4492 49.7477
C 3.5252 -50.3162 28.7062
H 2.7074 -18.3573 17.9734
H 5.2776 12.2299 -11.1072
O 0.1219 35.1559 -37.1027
C -11.4969 50.1830 -34.0775
N -11.3145 49.5767 -22.8449
C -6.4665 42.6465 -10.6323
O -5.5408 25.6373 4.3039
O 6.1766 -102.1306 45.1408
N -1.8023 -92.8606 55.4282
H -11.0657 -88.1339 42.5125
C 9.6784 -19.1831 24.2300
H 19.4397 4.7797 -9.4016
O 3.4844 61.7069 -28.4914
O 5.7605 97.5998 -57.9692
O -16.4601 78.9153 -56.4160
21

F -235.6650 76.8162 -85.8172
F -159.9549 49.4086 -39.4993
F -81.9721 43.3734 -33.2765
N 5.1761 24.9202 7.4127
F 105.2556 -0.6437 -11.4463
O 157.1523 -35.8482 -30.1922
F 147.8577 -79.0495 -33.2244
F 98.0589 -92.7969 53.2333
C -5.7273 -37.0867 162.8689
O -249.3191 103.0579 -105.0616
F -245.5733 104.0616 -75.0051
C -239.0394 62.9254 -59.2136
H -64.7401 64.0367 19.8646
O 34.5923 109.6913 69.1282
O 129.7104 130.0133 142.6164
O 154.0371 73.8770 112.9403
N 142.5659 -5.6119 -54.7436
H 144.8297 -152.6490 -289.4300
N 129.6764 -253.9429 -310.2339
H 85.0388 -260.1956 -103.8361
H -51.9599 75.6426 662.9156
21

C -70.1209 132.2435 173.4328
F -31.0497 92.8233 119.6676
H -51.3888 93.5997 122.0576
C -37.1716 45.6103 59.1286
H -10.9017 -22.6093 -46.7809
C 21.7664 -65.9407 -143.4547
F 43.2795 -100.9144 -206.0365
C 78.8505 -107.3145 -153.7616
H 119.0063 -106.5684 -25.7288
F -62.5966 144.3010 158.9415
C -106.9906 176.1524 220.3548
H -119.8393 227.0817 231.0796
F -70.9985 155.8516 252.4028
O -77.0880 57.4239 222.7570
C -37.9678 -108.5645 49.6159
N 77.1700 -273.3870 -177.1768
C 187.7406 -366.3021 -411.4312
C 194.8106 -273.1030 -544.9852
O 115.2233 -51.7978 -410.3851
N -289.1847 386.4155 145.5066
C 127.4510 -35.0013 364.7960
16

C 29.3298 -0.0965 -54.9733
N 13.4473 1.7425 -30.9656
C 1.1632 2.9625 -10.4494
O 1.1213 -5.2217 8.3833
H -12.8782 -4.4099 32.7723
N -23.0649 1.5044 35.4165
F -13.7237 1.1667 30.6993
C -17.2986 -2.3556 18.8008
C -4.9868 1.4263 -5.8761
H 30.2650 -2.5767 -57.5446
H 29.6393 1.1937 -62.5249
H 24.4367 -2.7355 -41.7295
H -5.7528 -0.1940 -5.6096
N -11.1624 6.0054 26.2763
O -18.8897 3.0027 53.7456
H -21.6456 -1.4142 63.5791
15

C 0.5741 -3.3268 5.8941
O 0.6654 -1.7831 2.7085
C 1.0496 0.3992 -0.6929
C -1.5937 1.8813 -0.6521
C -1.6558 3.0269 -3.6137
O -1.5279 1.8486 -3.6335
N 1.2569 3.1721 -1.1853
C 0.1721 -0.4519 -0.9775
N 0.6208 -0.4218 -0.6305
H 1.9398 -3.4763 6.0005
H 1.2913 -3.6200 5.4523
H -1.3473 -4.4311 4.2728
H -0.4955 0.9951 -3.1976
H -0.4978 2.1481 -5.6929
H -0.4520 4.0398 -4.0522
16

F 23.3470 21.1829 48.6040
C 12.7154 12.4029 25.1949
F 6.7765 10.4291 10.8092
C -2.1686 -4.5905 -9.6963
F -9.7872 -19.5536 -27.8887
N -13.4072 -14.1782 -39.2122
N -16.1353 -16.3198 -34.0865
N -12.1068 -5.7787 -18.4250
O -3.7197 1.3485 8.8077
N 23.2968 29.9760 59.6694
H 26.5128 24.6068 48.6713
H 19.6389 22.9280 44.6829
H -5.6705 -0.0216 4.2805
O -15.9202 -13.9704 -31.6171
H -16.7838 -25.4553 -44.4074
N -16.5882 -23.0060 -45.3867
16

F -12.8911 -38.1098 -130.6616
C -20.3798 -12.8616 -73.6864
C -11.9585 -2.4450 -20.1148
O 10.9715 4.2808 29.2566
H 14.9186 9.2325 75.9554
N 22.7816 11.7438 79.7788
F 11.9556 11.4284 54.4885
N -4.6674 6.9784 36.4396
H -4.8906 -5.8684 -6.7001
O -27.9607 -25.5426 -115.6439
C -16.5808 -35.0451 -111.7806
H -25.1227 -14.2751 -80.6165
H -4.9221 12.0708 -2.4999
O 24.8111 24.9300 66.3013
O 36.0351 29.9771 97.7297
O 7.9001 23.5059 101.7541
18

F -58.5179 151.4526 93.8291
O -33.1106 101.1883 48.8213
F -24.5052 75.3701 23.0020
F 7.2316 16.3988 5.3121
O 26.4096 -52.3789 -29.4918
H 32.8049 -103.7556 -66.3210
N 36.0451 -126.2390 -72.6094
N 23.4323 -102.7931 -51.6112
C 10.8028 -40.2285 -8.5325
F -68.4775 189.0762 104.8978
C -67.2599 192.7622 105.3459
H -54.5390 177.4375 116.9632
H -33.9588 76.2508 48.4598
O 2.5790 21.0462 -11.4580
C 18.3992 -68.8750 -53.5549
C 55.9931 -141.0471 -87.9347
O 57.1950 -181.2125 -93.6972
H 69.4763 -184.4529 -71.4206
19

O 44.4839 -132.3016 -164.7223
N 26.1838 -78.5740 -104.7962
F 24.1291 -51.0739 -81.2449
N 19.7574 -12.4113 -18.4047
C -1.6680 40.0287 45.1132
O -26.1056 74.0668 93.8684
N -39.4879 86.7518 121.7321
H -41.1880 68.9143 101.1909
C -23.4084 28.1503 44.6531
O 44.9335 -139.8091 -168.8672
N 44.4885 -136.7412 -174.6234
N 39.8014 -127.7148 -169.1246
N 40.4891 -51.6274 -107.0082
O 37.0169 -19.2387 -40.9317
N 25.0566 43.8922 37.4982
O -19.1238 91.9327 117.6598
N -50.7996 121.7180 168.4133
N -79.6722 116.1977 179.1702
F -64.8866 77.8394 120.4238
18

C -8.3420 94.1479 -161.2564
F -2.4540 61.5128 -100.0612
H 5.2279 27.1777 -59.3385
N 10.4605 2.3855 -0.9494
H 10.2209 -37.4230 61.0204
N 8.6949 -59.8872 101.2757
F 3.7754 -68.5638 108.7798
C -0.2189 -41.5113 81.7507
O -5.7390 -7.0944 20.9920
O -4.9830 108.7011 -175.3113
F -8.4090 102.5718 -172.8900
N -16.7258 98.6380 -155.0018
F 7.4064 28.5015 -54.8104
N 17.2246 -12.4337 18.4078
O -3.6790 -39.8865 91.5995
N 5.4082 -76.6291 141.0841
N -4.9879 -101.1937 136.2103
C -12.8802 -79.0137 118.4987
20

N 50.4340 85.3348 -35.8555
C 29.5085 53.3238 -17.9635
H 31.9409 36.2572 13.5449
N 22.3826 -5.3884 20.2186
H -8.0735 -40.8420 25.3571
H -28.0675 -59.3051 15.6267
F -44.9039 -50.8471 0.8673
C -50.8496 -23.4065 -9.6387
H -41.2769 6.3628 -49.8547
O 53.3652 100.6703 -32.6590
F 81.2812 87.8171 2.5329
N 90.0214 86.9829 37.2758
C 80.7122 26.6759 92.7830
H 31.7380 -32.2932 75.4434
O -37.3046 -99.8406 -2.0803
O -101.7069 -121.0964 -90.0674
C -155.0759 -108.5348 -150.0062
O -113.4737 -70.6905 -112.9491
N -28.3755 28.3134 -59.5293
H 137.7243 100.5063 276.9537
19

N 64.1106 199.2592 -53.3522
N 41.4845 123.5498 -35.5065
C 37.1569 88.0515 -29.0398
C 20.3561 28.1340 -13.1213
O -9.3380 -50.3362 13.1383
N -37.4679 -117.7476 33.4289
C -55.4835 -145.3145 44.3188
C -57.2369 -124.7664 38.3958
F -39.4749 -54.4790 21.5603
H 68.4774 217.1798 -58.7941
N 75.9308 218.2083 -59.3990
H 77.7151 199.6729 -58.7857
H 57.0328 107.3678 -38.9863
O 42.9781 43.4735 -22.9762
C 1.3343 -37.5716 5.8399
N -42.6295 -130.5714 35.9403
O -80.4753 -199.5667 62.1479
H -90.7003 -209.2654 69.9729
H -73.7705 -155.2780 45.2180
17

C 57.9367 6.0524 -104.8289
N 45.9119 2.9581 -59.5154
F 14.9950 -0.0418 -24.9933
N 0.4738 0.2083 10.1527
H -28.3450 -8.0858 55.7333
N -50.9676 0.6283 76.8521
F -36.3191 7.2530 65.6467
C -29.6353 0.6818 35.7778
H 2.9936 7.5626 -0.5905
N 66.5845 6.4166 -112.5703
H 65.9159 9.4257 -117.9234
N 49.4898 -2.0104 -98.9383
O 19.3703 -7.8057 -29.4131
N -12.3727 -4.0499 36.8378
O -36.5228 -12.7435 78.0529
O -69.5396 -6.1186 106.5905
O -59.9692 -0.3310 83.1293
17

F 28.9059 -25.5247 -142.1627
N 27.5666 -7.2948 -76.5234
F 3.1085 -4.8581 -33.9922
N -5.3696 8.3464 15.3720
F -13.7955 7.2629 61.9310
H -25.2504 8.4403 90.8822
F -7.6760 10.5420 96.1380
O -18.1184 4.8547 46.7847
H 4.9750 17.5145 -7.2749
N 26.3516 -20.4385 -150.3416
H 25.1245 -3.3298 -155.2735
N 19.8453 -13.5320 -126.1897
F 11.4731 -3.9390 -36.0887
O -3.8977 2.1431 47.4122
O -19.9565 -6.1212 99.6271
O -22.9181 3.4354 148.0268
O -30.3684 22.4987 121.6729
17

F -15.8572 97.4527 61.1087
O 0.8186 57.9195 35.2339
C 2.0866 28.2701 20.0997
N 13.1271 2.8067 -10.4335
O 18.5544 -41.3143 -29.1973
H 5.2327 -64.3754 -27.9490
F -0.0471 -64.4460 -26.3181
F -9.2529 -46.6508 -32.2129
C -17.7358 -16.7036 0.4126
O -16.8035 108.6045 82.8650
C -1.3041 115.3010 75.9861
O -6.0339 83.8225 49.1883
H 2.5030 31.6948 15.8503
O 14.2460 -48.8759 -33.2360
N 3.6305 -68.4541 -57.5747
N 4.8396 -100.3451 -69.7035
O 1.9960 -74.7066 -54.1198
20

C 143.2392 -97.3801 31.2421
F 100.6541 -65.6851 4.3428
C 88.3807 -60.5951 -17.3138
O 51.3647 -31.4713 -31.5854
O -28.3980 2.8548 -24.4017
N -85.2513 43.7185 -9.4688
O -113.6627 76.0679 10.1939
F -140.1214 89.0248 12.7687
C -112.8215 74.8725 50.5502
F 153.4384 -109.0129 38.9714
O 197.6717 -97.6511 -3.2218
H 215.6817 -103.3286 -53.1136
C 169.2301 -67.2781 -96.3416
C 109.1226 -71.0197 -58.3906
F -7.5859 -37.2128 41.1036
C -179.0728 41.2586 144.7369
N -335.0550 119.0097 178.8109
C -320.9192 152.6513 123.8550
O -181.9009 129.3134 -29.1578
H 276.0053 11.8631 -313.5805
17

F 34.6175 27.1343 39.1490
C 16.6307 15.2689 23.7292
O 6.9437 11.5419 11.2141
N -1.3694 1.3634 -2.6276
F -16.3821 -8.9372 -19.7400
N -22.0825 -15.0121 -29.2944
F -20.0747 -20.7919 -25.6335
F -16.2647 -15.1543 -20.5716
O 8.0377 -6.2292 6.9418
C 42.0206 32.8062 48.1237
F 36.9917 30.9853 42.7129
H 25.3898 26.6181 32.2912
H 12.2711 9.2293 9.5886
O -15.4417 -4.6830 -16.9805
N -31.1515 -23.3868 -30.1644
C -34.5091 -33.0989 -36.3241
F -25.6269 -27.6539 -32.4144
12

N 4.3319 0.9878 -0.4164
C 2.0589 0.6165 -0.5158
C -0.1445 0.3567 -0.2020
C -1.8483 0.0262 -0.3209
N -4.2849 -0.7219 -0.2434
C -5.8828 -0.8014 -0.8045
O -4.0806 -1.7836 -0.7293
N -2.7078 0.2610 -1.2765
C 0.2816 0.7880 -2.4109
H 5.9864 -0.6634 1.1513
H 4.0105 -0.0150 3.0809
H 2.2795 0.9492 2.6874
18

C 68.7292 26.2230 -68.3888
F 45.8366 16.1649 -39.6463
H 30.9578 10.6419 -18.6201
H 5.4472 1.6334 9.0985
H -21.6960 -8.0429 29.8110
N -44.0116 -20.4457 43.6553
F -48.8996 -22.6092 39.8672
N -40.8072 -16.9247 20.6238
N -19.3860 1.4485 -4.5597
N 75.4596 30.1705 -79.8780
H 75.0097 34.4526 -70.0945
H 72.8848 35.7421 -55.4075
O 36.4762 19.8135 -12.5420
N 7.7992 1.5490 15.0506
O -28.8981 -22.7146 39.8020
O -64.6929 -28.3014 60.1441
N -82.6217 -30.6716 50.6936
C -67.5870 -28.1294 40.3907
13

C -0.3943 -4.9659 0.0669
C -0.2171 -2.0830 0.5480
C 0.9102 0.1267 1.7222
N 2.8751 1.5454 -0.0931
C 1.8372 3.5279 -0.3257
C 1.9400 3.8514 -2.1724
C 0.5081 2.7885 -2.1297
C -1.7940 1.9821 0.3477
O -3.5653 2.1778 0.6030
H 1.3510 -6.0960 -0.2762
H -1.9474 -5.0117 0.3278
H -1.6033 -1.9669 -0.2822
H 0.0998 4.1238 1.6638
17

C -13.9887 22.9651 -21.9682
C -7.6561 14.0504 -14.2366
H -3.4259 6.5620 -5.3121
H 3.9948 -2.4292 1.7079
C 11.0987 -12.4500 7.5532
O 10.4912 -17.7961 16.3355
O 6.6915 -14.6322 14.5310
C 0.2533 -14.1414 10.6933
O -1.7559 -6.4170 4.0938
F -13.2401 22.5858 -24.6322
C -11.9570 28.5381 -22.4695
H -12.7978 25.2884 -21.8066
H -1.2925 15.6305 -3.7294
H 8.3207 -1.6000 3.3703
C 7.2671 -15.2514 15.5108
H 10.8613 -25.7496 20.5508
H 7.1354 -25.1535 19.8079
22

F 9.2217 -198.4600 20.4552
C 99.6248 -109.1917 33.2122
O 87.8704 -18.2533 -0.5180
O 96.0295 96.6154 81.5763
C 77.6329 31.7117 163.6665
F -29.3994 -45.1765 160.5219
N -146.9216 -56.6115 -35.3080
O -221.8659 51.5754 -185.6141
H -211.5710 128.0318 -222.7424
O 38.7422 -250.0309 2.4977
H 86.9297 -29.3637 -84.2186
F 235.6880 -56.0046 -106.4109
C 176.9571 359.4300 7.6334
O 77.2428 211.8132 131.8343
N 264.8860 -153.9727 244.7176
C 191.1104 -239.1800 310.3623
H 222.9355 -2.0435 103.0824
H 69.2193 214.2691 280.2727
H 301.5991 120.8850 22.2779
N -93.5268 -402.6769 -41.3739
H -573.6520 273.8210 -577.5737
O -758.7526 72.8125 -308.3506
16

F -24.5104 -38.5587 74.2240
N -5.1582 -22.4194 45.6480
O -11.1956 -13.9418 17.0237
C 7.6087 -0.8023 -6.8345
H 2.1786 6.0928 -38.4286
H 4.2431 31.7151 -54.3670
N 8.1081 34.1769 -51.0213
C 14.4995 23.3022 -21.2367
C -3.3026 -1.9887 -4.3379
H -32.7904 -39.6426 76.7047
C -10.8241 -41.6032 72.4292
F -14.3859 -42.6586 69.6006
F 3.8957 -2.6031 0.4021
O 14.2985 33.1437 -48.2851
C 29.3400 54.6973 -81.5118
N 17.9951 21.0904 -50.0094
18

C 38.0641 57.9774 -148.0935
F 27.3094 32.2154 -93.5312
H 18.9091 22.7840 -52.6311
N 4.8712 4.0819 2.4755
H -13.7423 -19.8763 60.1890
C -25.8161 -37.1768 95.0036
F -26.9255 -45.9647 96.2407
C -22.1769 -37.0315 62.9280
N -12.3402 -6.8443 6.7630
N 46.9751 69.6126 -163.4096
H 38.2290 66.4827 -155.8124
C 35.1202 62.4142 -134.5858
F 23.4216 29.9056 -45.9029
N 15.1016 0.4120 15.8007
C -11.1252 -26.0433 84.2923
N -37.3947 -51.8867 132.8726
N -53.0463 -65.6690 125.8869
C -45.4340 -55.3932 111.5141
17

F -47.9264 61.4101 -137.0777
H -29.9479 41.6695 -89.1977
H -12.4981 18.8431 -30.9670
C 6.0111 1.1376 21.8099
C 21.6723 -32.5677 56.6912
C 26.0671 -54.6250 95.1192
C 12.6963 -52.3079 82.6264
C 2.9799 -40.4992 51.3682
C -2.2699 -4.9736 -5.7251
O -36.1844 66.3353 -151.1753
C -29.9049 76.1909 -131.1682
N -38.9437 79.4887 -124.6115
F 25.0861 40.0950 -18.8473
O 36.4420 0.7009 39.8826
O 24.0701 -63.9725 101.9080
O 35.3459 -80.6577 135.6136
C 7.3045 -56.2677 103.7505
20

F 107.6458 83.7418 -26.4136
N 71.4215 54.8072 -23.8560
F 57.6030 39.2674 24.0662
C 38.6894 -0.3598 36.7791
H -25.7560 -46.8093 46.4718
C -67.0514 -56.5519 31.7997
F -86.0253 -45.5747 -12.7403
C -94.1590 -31.8490 -50.7253
F -64.3154 -12.2939 -82.6439
F 121.1390 102.9250 -46.1686
H 147.0654 117.1143 -8.2983
O 172.0098 144.9922 24.5641
F 132.7933 66.9296 92.3581
O 34.7415 -50.9144 139.3637
O -86.3252 -166.7816 109.7264
N -185.0533 -270.2996 45.9191
O -228.4240 -283.7245 -53.3466
C -150.6600 -160.1307 -118.2403
H -48.0878 72.4808 -199.1429
H 152.7488 443.0314 70.5276
16

C -85.0957 4.8505 17.4892
H -46.6763 3.3402 5.4801
C -11.1467 1.9792 2.6554
O 21.9370 -7.3998 -5.8264
C 37.1836 -15.1673 -6.4622
F 47.1702 -10.7124 -8.4022
N 45.2294 -2.9531 -3.4555
C 32.5761 4.5394 -11.9239
C 15.6001 4.1573 -18.5412
H -95.7373 1.6958 22.8937
F -83.2436 15.7017 22.2976
F -83.2850 -2.4201 3.4958
C -10.4959 22.4157 -16.2277
C 63.7710 17.9321 6.6022
O 82.0456 -21.3993 4.8848
C 70.1674 -16.5599 -14.9596
16

H 24.1371 50.3157 41.7886
F 17.4737 32.5023 21.1177
F 9.5459 16.1571 4.9098
C -5.3625 -0.6820 -9.0322
O -17.3715 -28.5416 -17.6012
H -22.2923 -28.9999 -27.9782
F -15.2031 -38.7890 -31.9489
N -7.1348 -20.8354 -10.5000
N -0.5657 -7.9733 1.8350
N 19.9739 53.7929 58.2928
H 14.9605 51.4817 49.6213
N 12.9612 42.6114 46.6180
H -3.0680 17.3239 -1.0692
O 2.1287 -32.4873 -32.3389
H -18.2849 -51.6533 -43.5726
N -11.8982 -54.2232 -50.1419
16

F 17.1590 10.0331 31.5483
C 9.8447 7.7290 16.0055
C 6.0326 4.8965 6.4682
C -3.7885 -1.6467 -3.7928
F -12.0022 -6.1796 -16.3396
N -9.0915 -4.0429 -21.0433
O -11.8152 -9.3706 -18.1491
N -8.4173 -7.5982 -12.8126
O -3.1334 -4.3645 0.8708
O 17.4558 10.3941 35.8273
H 15.6694 11.7964 29.1919
H 13.0015 11.2386 26.1233
H -1.1382 3.3982 1.1289
H -7.7231 -4.8817 -19.5280
H -8.0781 -6.7214 -30.5665
H -13.9754 -14.6802 -24.9323
14

C -21.5318 -1.9393 12.6683
C -10.4606 0.3606 4.5985
C -1.5994 2.6850 -0.8685
O 4.6899 2.7711 -3.1981
C 7.1607 2.7232 -4.7635
C 10.6536 -0.0891 -6.1253
O 10.7260 -1.0000 -5.6181
C 15.0236 -1.1128 -7.4879
N 11.3862 -2.9404 -9.5566
H -25.2268 -4.7599 15.3135
H -18.4988 -5.6174 12.8770
H -10.5184 -5.5256 7.2216
H 7.6310 5.1944 -9.1460
H 20.5647 9.2501 -5.9149
18

H 96.1411 -74.8652 159.9484
C 60.6874 -38.9778 105.5700
C 41.4848 -25.2778 69.1280
C 7.7631 -8.8601 -1.2046
C -37.4788 20.9620 -69.6662
C -69.2218 50.9111 -105.8271
C -74.6364 46.0217 -113.6174
C -63.4645 46.8643 -64.5920
C -15.4120 43.2271 -14.6440
H 105.0095 -69.4243 159.4926
F 102.5062 -95.9355 165.0902
N 79.8430 -80.0551 165.6783
C 42.3177 -44.0559 102.1651
O 34.2705 -34.0302 27.5888
C -33.9493 25.0741 -74.7066
H -79.0901 89.0870 -155.2681
C -98.7866 86.0515 -202.3765
C -97.9839 63.2831 -152.7589
17

F -61.2201 13.2041 -112.8296
C -42.2180 3.6163 -66.9183
H -17.0102 5.2690 -34.1626
N -2.5931 -2.7395 24.8039
F 30.3493 -3.0023 38.6749
F 44.5188 -6.6264 70.2125
F 44.0056 -15.5154 56.4511
F 28.2750 -15.0603 33.4630
C 2.3405 -4.7771 -0.9419
O -70.9061 16.0578 -111.4715
F -74.1858 19.9973 -110.3454
N -83.2226 11.0095 -99.6444
N 2.5743 5.3933 -3.8210
O 18.7042 6.7395 46.0043
O 44.3616 -6.9353 79.2632
O 77.9152 -12.3658 106.4790
C 58.3117 -14.2646 84.7829
17

F 16.1231 -28.4330 109.0665
C 5.9812 -14.1918 64.7601
O 1.7895 3.0660 35.6965
C 6.0951 3.9608 -10.1069
H -6.4536 3.8170 -64.8221
C -3.1001 20.4698 -64.1566
F -11.7596 11.0856 -61.7182
F -13.8086 6.0736 -39.0673
C -13.1294 -2.5517 -5.2616
N 10.6823 -28.0053 123.3965
C 12.8806 -26.5888 103.0652
H 19.0082 -21.5518 93.3171
H 0.8702 -4.8347 18.5054
O -4.6965 14.6424 -42.4270
O -0.3650 15.0919 -76.6674
F 0.8715 19.9346 -95.8643
C -20.9886 28.0155 -87.7158
13

O -1.2735 -1.2760 -3.0039
C -0.7940 -0.8820 -0.5000
C -0.2043 0.7721 1.1690
O 0.3120 0.9939 2.7641
C 1.6531 0.2565 3.2613
N 1.9879 -0.1509 2.3304
C 1.1632 -0.6101 1.9863
O 1.2575 -0.2728 -1.4741
C 0.0013 -0.6643 -1.9921
H -0.4936 -1.4047 -3.0442
H -1.6796 0.8389 -3.1282
H -1.7740 1.3987 0.3703
H -0.1560 1.0006 1.2611
14

N 13.6607 -8.5578 6.6975
C 6.0073 -2.3279 2.6335
C 0.2096 0.0275 0.9647
N -3.1788 2.7490 -1.0436
C -7.6078 4.9705 -3.5756
O -8.8659 6.0326 -3.4514
O -9.8849 3.9568 -4.0528
C -7.4341 2.7377 -5.1496
O -4.0987 4.0320 -4.4464
H 15.0400 -9.2907 7.1361
H 13.0754 -5.9886 6.7659
H 8.4925 -8.3403 4.2421
H -6.6505 3.4731 -2.0313
H -8.7648 6.5262 -4.6892
17

N -159.1551 223.3478 67.4131
O -66.4287 137.9190 18.9165
C -34.9031 65.9882 21.9177
N 41.4214 -17.2469 -30.6763
O 80.8744 -106.5914 -33.6626
N 76.6920 -165.4252 -28.5011
O 70.3292 -151.5670 -1.0435
F 42.0927 -87.5217 -43.6932
C -12.8658 1.9732 18.4111
F -165.9113 215.1856 92.3696
C -161.6599 249.2753 97.1867
H -169.0294 188.3380 39.2896
O -7.0604 74.5758 17.7124
O 105.9803 -79.3981 -31.8382
O 99.3290 -165.9334 -59.0781
N 153.6621 -215.5690 -94.6540
O 106.6326 -167.3504 -50.0696
23

O 225.3065 79.1274 144.3876
C 190.0450 18.2487 151.6323
F 29.7850 97.5880 135.2267
F -157.5134 -0.6371 -54.9647
H -207.5516 -176.6688 -50.4391
H -372.7180 -225.3050 -88.2438
C -253.1357 -224.7932 34.7285
F -8.9513 61.3223 -154.8699
C 315.8859 345.1985 77.6004
H 372.3498 -37.5999 -10.7696
N 154.4917 -240.1454 10.9949
H 62.2373 -167.0189 -73.9987
C -57.3744 128.7372 2.0362
O -364.4891 -91.1587 122.1957
O -154.8933 -155.1396 -247.1777
O 15.0745 540.2152 270.8541
C 157.5838 326.1527 151.1999
O -22.0528 -298.2742 -25.9459
N 485.9679 123.5566 -68.1997
C -703.0773 -104.3123 185.3602
O -541.4313 240.6833 -262.7889
H 245.7203 -406.3210 -210.7194
F 588.7407 166.5441 -38.0991
19

C 16.7023 164.9978 59.9147
N 11.8130 106.4712 41.6039
H -2.3989 78.3764 52.5621
C -7.7383 32.4140 36.8482
H -17.8147 -41.9434 5.7940
N -11.4267 -96.8777 -38.0189
C 2.7357 -122.0912 -73.4905
C 5.6597 -110.3409 -79.5173
O 14.1697 -53.1374 -57.4995
N 21.5242 183.2563 62.5826
F 17.3419 184.8148 85.1540
N 12.5121 175.7357 91.2859
C -5.4504 97.1485 101.3482
O -24.7362 41.8455 80.4399
F -39.1110 -41.4759 47.8775
N -40.5742 -121.3925 -12.5622
C -8.1305 -177.2211 -99.0024
C 18.6488 -185.9532 -146.2870
H 36.2734 -114.6269 -159.0330
14

C 3.0725 0.7204 -4.6089
C 1.8582 0.9887 -2.1435
C 0.8110 -0.4421 -2.1871
C -0.1182 -2.1602 0.0397
O -1.2400 -1.0774 2.6278
C -2.1760 0.0420 3.3959
O -1.9473 0.4500 4.6286
N -4.1482 0.2816 3.6452
N -4.6338 0.6830 3.6728
H 2.8282 -0.1271 -4.0299
H 3.7820 0.7802 -4.5320
H 1.5195 0.6756 -1.5049
H -0.9703 -1.5640 0.6401
H 1.3623 0.7493 0.3562
17

F 101.1500 108.3705 -68.4867
N 67.2720 59.4676 -38.8205
H 22.2998 24.5793 -9.4680
C -17.1733 1.2925 8.3540
H -56.2887 -53.0667 29.8878
N -81.6016 -68.6866 49.8677
F -66.3739 -55.8574 31.9810
F -38.9971 -46.4711 21.3619
H 13.5480 -7.4717 -0.9740
F 117.6675 128.0109 -78.4205
F 104.4172 111.9445 -69.2739
N 96.9050 82.3806 -42.4724
H 19.4119 35.4208 3.8744
N -24.3427 -42.9007 8.3535
N -78.9143 -95.0639 44.0151
N -92.9202 -104.1861 62.3495
N -86.0594 -77.7624 47.8711
21

F 140.9138 247.3279 -177.0833
F 69.4339 162.9316 -112.4971
H -33.3299 124.2177 -65.3134
F -133.4305 66.0005 -18.6620
F -234.1315 -11.9065 92.9368
C -205.4875 -109.8355 211.8067
C -53.6496 -164.8073 129.3963
F 152.7002 -177.3193 47.2574
O 309.8977 -183.5480 -79.1442
F 130.2475 256.6043 -182.2737
C 108.7496 300.5793 -202.1795
F 60.1038 330.1267 -232.6312
H -93.2194 167.9757 -168.7419
C -238.2013 -38.2195 -45.1070
N -350.9715 -191.4291 132.6180
C -317.8281 -227.0578 327.3079
F -162.8358 -208.1353 470.5932
O 43.3715 -65.4172 516.8032
H 239.0822 59.7225 215.5262
N 99.2340 105.2856 -357.9213
C 469.3511 -443.0963 -502.6909
23

F 301.0359 92.0989 267.0327
O 160.2841 44.4876 154.6214
O 173.4483 -70.2050 73.9842
F 31.2654 -94.8699 212.3987
F -63.8483 -81.6272 127.7741
C -253.2731 -12.6532 32.4349
O -258.2864 -65.0087 -275.2665
C -145.2458 -44.9649 -467.7462
H -53.2967 35.7302 -393.0627
C 246.1915 137.8045 423.6818
C 244.9186 182.2072 549.0786
O -110.2653 -84.2897 437.9303
H 170.6773 97.4756 72.1990
O 412.2756 94.6015 55.2580
N 51.5442 -216.2151 3.9701
F -99.3704 -125.1509 -192.2879
H -221.1221 239.4933 -110.7156
H 221.8630 175.6055 -11.0179
H 334.0060 540.2492 -109.9061
N -329.1020 -102.6718 -381.2901
F 50.4314 641.9532 -777.4380
H -451.0456 -672.0071 -82.0219
H -413.0857 -712.0433 390.3892
21

N -179.6805 -179.7291 -114.3768
N -113.5671 -120.1311 -68.9938
N -79.6488 -95.1554 -33.7489
H -7.4935 -37.9049 38.8084
C 72.9673 51.8163 90.3386
C 137.7849 115.7458 110.7327
O 141.9211 143.6570 85.3960
H 76.5322 124.0024 -10.0133
C -43.3988 57.4837 -94.6449
O -182.7793 -192.4959 -124.5339
N -163.5986 -218.1806 -121.4633
F -151.8329 -217.8005 -95.8159
H -90.1139 -146.3347 -43.6143
C -28.4869 -93.8889 29.6257
O 65.3946 40.9559 110.7174
C 129.4179 201.5741 214.6971
H 164.8534 319.0525 236.3643
O 228.7232 304.2910 201.2197
O 196.4610 196.0460 33.2441
C 113.0874 -159.9222 -165.2957
C -286.5424 -93.0814 -278.6432
21

H -198.7953 -207.7256 -215.7324
F -102.9642 -135.5242 -138.1072
F -34.0961 -40.9761 -134.8724
C 75.1700 92.8509 -99.9429
H 135.1282 153.1526 7.7560
O 94.2342 191.2035 135.5254
C 21.5319 135.2414 210.9906
F -36.4474 -10.3443 219.3284
H -22.5061 -207.4158 148.6749
F -209.0816 -244.8043 -226.4635
F -203.2938 -185.4349 -259.9390
H -172.8488 -111.5708 -283.0608
H 81.0853 74.8753 -250.3591
O 228.1175 159.3995 -209.7333
N 333.1701 245.6982 -145.9131
F 424.2165 163.0112 24.5754
N 345.8545 100.3028 189.3476
C 9.6825 105.2057 462.7495
N -310.8836 -42.8225 495.7652
C -646.3152 54.6458 129.6042
H 189.0413 -288.9686 -60.1933
17

F -1.2925 48.8806 -54.6539
N 0.6816 31.2877 -35.2659
H -3.9081 17.0222 -13.8109
C -3.6731 -0.9144 3.2248
H -3.0904 -24.9144 19.5740
C -1.4466 -39.3311 39.7274
F 4.3773 -37.1378 36.7674
C 1.8336 -27.5551 22.4558
O 8.7594 -4.1916 -0.6130
F 1.2957 51.8979 -61.5013
C 3.1162 63.9706 -57.0897
N -3.8166 51.4027 -50.8992
H -0.6704 27.9822 1.8954
O 1.8272 -2.7132 13.7623
F -6.8336 -41.3713 44.4531
N -2.1374 -59.9865 56.1744
O 4.9778 -54.3284 35.7993
14

N 7.0578 -11.9876 4.1211
C 3.7040 -4.5611 1.9933
N -0.7859 -3.0493 0.6596
N -3.6818 1.6975 0.1417
C -4.4736 7.3814 -1.6342
O -3.9637 11.3131 -4.4817
O -3.5999 11.4360 -3.2380
C -2.8811 7.0667 -2.8822
C -2.3205 3.5180 -1.8216
H 7.0326 -13.8296 6.4378
H 7.1499 -12.0791 4.8955
H 5.5992 -9.5608 3.3254
H -1.7611 4.4260 -3.7866
H -7.0758 8.2289 -3.7301
16

C -52.3933 -10.9825 69.1643
F -23.9728 -7.3062 51.1234
H -22.1354 -5.9709 19.4427
C 19.7493 3.6296 -13.1112
H 29.8074 3.5118 -34.0531
N 33.1873 15.0895 -53.9492
C 28.2003 8.3757 -46.9117
C 13.3258 3.3905 -22.1133
H -6.4001 -6.4269 -10.2251
H -59.7128 -9.2168 74.3921
C -44.4144 -20.5242 55.7127
F -46.5294 -19.4157 66.2692
H -3.9014 1.0562 -1.0082
O 24.2841 19.1547 -41.0669
C 63.0175 15.5129 -52.0501
O 47.8880 10.1223 -61.6157
18

F -7.9971 12.4808 -214.4334
C -7.7139 12.3893 -130.1234
F -2.2105 5.1789 -79.3220
O 11.8136 6.5791 -2.4409
H 10.1520 -7.7077 86.3978
N 7.2210 -4.7672 138.0082
F 6.4665 -9.3231 137.1162
C 4.4938 -7.7987 97.0688
O -0.7278 1.9568 9.7103
O -9.7190 16.6769 -231.5215
F -14.1992 9.3592 -226.5936
C -24.2541 9.8617 -203.4899
C 2.6539 -1.8692 -76.4277
O 6.5835 -10.4268 41.5785
O 4.2126 -10.1688 124.7577
O 9.4368 -2.9422 198.4658
O 2.7390 -5.5887 187.8386
N 1.0488 -13.8902 143.4105
19

N -56.3368 318.2368 173.0923
N -36.6194 199.7870 113.4610
F -23.7536 147.4115 82.9288
C -8.8689 50.8704 23.7242
F 17.3274 -76.2092 -47.1371
F 33.2172 -182.9138 -106.5247
F 43.7307 -234.0293 -133.0345
C 37.9429 -208.8571 -113.8138
O 11.8032 -104.8304 -48.8084
O -64.7787 351.1655 186.3820
O -64.6537 349.4680 199.0088
C -50.2679 326.6867 188.5835
N -23.5768 179.1801 118.8670
O -7.0944 86.2701 47.8912
H 0.3268 -52.1889 -40.4204
O 31.4381 -210.6407 -126.0635
O 47.4445 -323.2621 -188.7517
C 66.3764 -357.2283 -195.2783
H 46.3431 -258.9164 -134.1064
16

C 10.7576 22.2967 -22.1965
C 4.8354 10.6833 -13.3814
H 1.5612 3.8621 -8.0409
O 2.6251 -4.9176 2.5924
C -3.5639 -14.1982 11.6339
N -6.4142 -15.0892 14.0176
F -7.2053 -13.4568 14.5217
C -7.1323 -7.9223 17.2993
C -4.3242 1.8356 3.0104
N 10.6081 26.4680 -24.7148
H 10.4726 19.1548 -26.8917
H 9.0974 17.0656 -21.1850
H -3.5732 -3.5780 -5.9077
N -0.8206 -16.1047 5.5976
O -7.2827 -11.9591 21.8710
H -9.6411 -14.1400 31.7741
19

C -126.6618 130.9668 -122.7536
F -70.0478 76.5702 -69.4960
H -65.4789 38.8899 -23.8881
N -39.5582 6.4765 21.0833
H 7.7910 -47.8458 65.6036
N 61.4387 -78.0783 79.9398
F 105.5251 -74.5774 48.0819
C 117.2776 -64.1686 22.9835
H 69.0603 -14.6323 -26.5884
N -131.1041 139.5454 -135.9807
F -151.0501 129.6019 -116.8102
N -151.0073 123.2396 -81.9799
H -112.3296 42.7995 14.1513
O -78.2648 -24.2328 49.8201
C -37.9069 -68.3186 91.7380
F 52.2058 -102.6806 111.8119
N 126.0674 -115.7666 67.7778
C 202.9447 -85.5902 48.3542
H 221.0989 -12.1987 -43.8485
23

C -56.1317 -111.4042 164.4160
H 30.6833 -104.2467 168.8725
C 37.9814 -70.5198 215.8042
O 161.0117 -14.4099 154.6952
F 213.2496 -11.0114 -15.7772
H 122.9543 37.9060 -18.6728
O -50.9245 145.3560 -110.6995
F -183.6391 111.6188 -221.5599
F -274.3318 5.2326 -185.5065
F 60.8354 -114.8756 151.7291
C -105.2774 -174.5266 64.6483
F -28.5200 -84.4849 235.0112
F 214.7616 -20.6187 273.6594
F 225.6418 -55.6393 42.5482
C 370.7582 48.7019 -207.7366
F 10.3395 -52.7346 26.3481
F -92.1308 -349.7758 -115.0180
F -74.2102 -67.2264 306.5531
F 74.1314 134.7616 79.8807
O 55.7244 480.9865 4.2715
O -405.1875 -28.4898 -336.3442
H -111.1485 87.7673 -358.0373
O -196.5712 207.6328 -319.0854
17

C 118.9820 -69.2743 -86.8622
N 74.2319 -36.4239 -55.5183
C 31.8176 -12.1361 -27.1484
H -4.3672 15.9737 -7.2711
F -47.4608 30.2192 44.9399
N -79.2699 31.3799 80.7904
O -62.1589 49.4559 68.8771
F -66.6440 36.6473 23.5817
C -28.4066 11.2765 -19.6040
F 125.7105 -94.5206 -99.4005
F 117.4268 -68.6590 -97.4104
H 95.3577 -94.1966 -88.3198
H 34.2497 -3.2920 -34.5504
O -12.3144 18.1876 31.9423
O -88.6498 63.0840 78.8411
H -99.0751 60.8689 100.7045
O -109.4295 61.4094 86.4081
19

F 47.9403 124.7869 9.6836
F 30.9068 81.0891 6.5280
C 26.8488 66.8360 5.3935
H 14.8013 33.2562 -0.3964
O -2.3865 -17.1133 -0.5853
N -23.9763 -73.0256 -3.2839
F -40.0182 -103.7318 -7.0326
C -47.8408 -100.4617 -5.7920
O -35.3165 -61.9840 -2.4882
N 53.1949 136.8765 12.3325
N 55.8154 140.8964 14.9540
H 59.2606 135.7958 9.0078
H 46.5831 93.4562 2.1557
N 34.4990 61.0845 -1.5283
N 4.7954 7.9591 -5.7413
O -26.2379 -67.6952 -10.3198
O -58.8175 -136.7000 -8.1262
C -70.6809 -171.0438 -7.3856
H -69.3708 -150.2812 -7.3754
13

N 2.0805 6.3418 -11.6018
C 1.1431 4.3421 -6.0382
C -1.1729 3.0568 -1.7243
C -3.0122 -1.5304 6.4233
O -1.9695 -5.5118 10.6285
C -0.9051 -6.5396 10.0353
N 0.5327 -5.5424 6.1657
C 0.7289 -4.9682 5.0101
C 1.4797 -4.9824 1.7665
H -0.6453 6.7664 -12.6930
H 0.4364 6.1631 -10.0026
H 1.1325 2.6117 -2.7334
H 0.1712 -0.2071 4.7638
18

C -35.4236 58.8287 -6.4426
O -19.0561 36.7684 -5.0322
C -14.0272 25.4500 -4.9147
N 0.6400 4.2384 2.5864
O 14.8586 -19.2721 2.2170
N 20.7388 -37.2108 -0.2511
N 21.2354 -45.4674 1.3835
C 18.0775 -36.7768 5.9551
C 10.9673 -13.6605 6.4017
F -38.9525 70.4802 -6.1500
C -40.2956 69.7587 -9.0604
H -31.9828 62.5729 -0.6488
H -18.1278 21.7706 3.1436
C -1.0496 2.3028 -3.9422
C 13.2140 -22.4991 -0.4689
O 30.8972 -48.4016 5.7205
O 35.2058 -65.7388 6.0643
F 33.0803 -63.1438 3.4389
19

F 65.2152 -183.1492 59.9294
C 41.0692 -115.5412 30.1060
F 26.6811 -88.6161 6.5709
H 5.2512 -34.7715 -16.1496
H -20.5180 36.5708 -34.5662
F -42.0236 106.2511 -34.7574
C -45.2959 141.9411 -21.9457
F -39.2204 131.1015 -0.7966
C -10.2024 63.5871 19.6878
F 70.0719 -199.8421 67.1636
F 71.4358 -204.9204 49.9031
O 64.2359 -194.0202 41.9143
F 33.3232 -111.0472 -12.1059
N 11.9485 -55.2362 -39.2650
N -11.0540 11.7024 -57.6120
N -43.0628 107.5675 -63.8327
O -59.0265 193.1737 -39.9422
N -66.9975 218.7155 -2.6739
N -51.8309 176.5334 48.3720
17

O 114.7828 40.4444 15.1159
C 64.6204 14.0800 4.0383
C 38.6763 -0.6764 11.2847
N -4.2861 -10.7891 2.6202
F -59.8958 -12.8783 -9.4630
N -80.5639 -5.8381 -12.4074
C -59.0232 8.3685 -20.9440
F -41.3949 0.5183 -14.1888
H 8.2465 0.4991 1.0836
F 120.9948 20.7631 20.0997
F 112.9483 11.8590 24.4815
N 86.0261 5.8433 24.2835
N 19.5125 -2.0866 3.5025
C -32.0913 -18.1859 1.0002
C -89.4990 -21.6469 -6.0361
C -103.9951 -22.4473 -21.7376
F -95.0582 -7.8271 -22.7331
16

N 52.9221 -58.0711 95.2592
C 28.6303 -30.6556 32.5927
N 6.8144 -20.8955 3.4416
N -15.7068 -0.9768 -2.1672
N -37.1043 23.6225 -36.9496
O -47.2814 43.1237 -59.4915
O -41.7332 54.5937 -56.6412
C -9.0074 11.5944 -37.3832
C -0.5608 -13.3499 11.3348
O 46.7450 -69.6701 104.0040
H 68.5951 -47.7144 112.0155
H 43.1915 -34.5984 55.6801
F -24.8213 1.3260 -9.1582
H -19.7852 33.9394 -29.0345
O -30.4385 44.6901 -106.2900
N -20.4596 63.0419 -77.2123
19

F -181.4098 -177.1299 16.3932
F -98.2742 -103.4732 4.2653
H -66.9917 -73.1838 -21.5304
C -5.8858 -17.0590 -39.3680
H 55.4472 43.5877 -56.4853
H 102.4594 103.5298 -17.3416
F 115.9968 119.7587 18.4488
F 89.0679 100.1724 51.6820
C 32.5361 38.8874 72.1268
H -191.4511 -192.6240 19.5647
C -194.3043 -186.9588 -0.0328
O -183.5324 -180.4531 -15.0153
F -82.3763 -85.6012 -67.4277
N -7.1313 -21.0419 -83.6899
O 74.7503 41.9575 -99.0828
N 134.1936 128.7253 -51.7347
N 160.2090 175.1406 8.9815
N 159.6243 174.0718 98.3680
N 87.0724 111.6939 161.8781
19

N 37.5138 -71.6544 -180.3271
C 18.0441 -45.5472 -113.8170
C 30.1314 -35.7007 -84.2715
N 24.8341 -21.7046 -18.0233
C 3.6915 10.0545 50.4409
N -18.9398 36.8409 110.5062
C -42.4645 58.1782 134.3407
C -48.8877 56.6672 111.5671
C -35.2297 35.9026 50.6543
O 39.6150 -77.9995 -195.0771
F 48.7968 -76.5350 -201.6212
N 42.9872 -75.3355 -192.9531
N 51.1680 -48.0591 -105.2840
O 45.8779 -45.1483 -37.0322
O 27.6409 -10.1730 46.5732
C 1.2782 42.4966 130.8119
N -53.1888 87.4862 186.2226
C -92.7444 100.9809 188.1877
O -80.1239 79.2501 119.1019
17

N 67.1404 -55.7248 -73.2263
N 41.3007 -27.9385 -46.5960
C 12.4085 -7.2104 -31.9643
H 3.7963 10.4079 -10.2342
H -23.5670 16.4459 38.7067
N -34.9834 17.1287 67.5663
O -30.2378 31.5281 65.8460
F -41.0633 32.6700 20.8719
C -19.7023 15.1185 -10.7504
F 73.5887 -65.1745 -81.4796
F 59.1234 -49.4133 -79.0193
H 46.7226 -63.9827 -78.3238
H 22.2570 -6.3939 -21.8063
C -12.8809 7.9084 22.9534
O -47.6818 35.9754 73.8645
H -44.0786 51.1400 72.1942
O -72.1425 57.5151 71.3971
18

F 135.1552 65.4407 19.5026
C 73.4531 36.2502 5.6752
C 39.3126 14.1475 -6.5080
F -6.6692 -6.5193 -15.2134
C -57.5870 -32.7050 -13.6856
C -80.4905 -39.9158 -7.1205
C -89.6842 -36.0257 4.2968
F -68.7893 -24.8369 6.2179
C -25.6311 13.3109 15.3997
H 154.6118 69.2837 21.2252
F 153.7498 54.4631 11.7616
N 130.6563 53.7517 9.5714
N 56.5777 30.4936 -19.2202
C 9.2475 -7.0532 -37.5176
N -54.2124 -49.0889 -24.3803
C -119.5290 -59.8693 -3.0152
N -149.4265 -45.8205 17.8925
H -100.7447 -35.3068 15.1179
17

O 101.8249 5.9297 -29.5271
H 62.8186 1.0084 -19.4272
C 35.6098 0.6617 -8.2843
F -7.5660 1.0139 -7.9965
F -49.4572 -7.1066 11.4290
N -73.2225 0.4571 29.1821
C -56.1520 8.1949 19.9481
F -41.6727 9.3245 9.8670
H -2.5757 8.5658 0.5535
F 107.6997 -8.3856 -28.3936
F 109.1135 -1.7616 -29.5064
N 80.6356 -8.8706 -24.5544
N 18.0712 1.8885 -21.5629
C -25.6160 -12.6847 4.9998
C -73.7757 -8.2195 28.4720
C -97.8157 1.8836 29.9457
F -87.9198 8.1005 34.8553
17

C -42.5540 46.9535 -23.5295
O -23.0156 28.6437 -19.2364
C -7.1207 14.1745 -7.0578
N 5.1806 -5.8972 -0.9236
C 22.7377 -21.4125 6.6696
N 24.6047 -35.1266 20.8490
F 23.9219 -31.5458 17.0035
F 19.5006 -21.7590 6.5267
C 7.1206 0.2697 -4.1268
F -47.6808 41.2240 -17.4709
F -49.3575 54.0702 -21.8900
H -57.6611 37.4067 -33.3944
F -4.8147 16.3464 -8.0647
C 26.8824 -7.1618 10.8241
O 29.3572 -33.4124 26.1596
N 44.4858 -41.4455 23.8566
H 28.4129 -41.3278 23.8050
11

C -0.1411 0.4628 1.7650
C 0.1593 0.8264 0.1678
O -0.3618 0.6668 -0.1778
C -0.6891 0.3436 -0.0982
N -1.6250 -1.1036 -0.2032
N 0.1795 0.1560 -2.5906
N 0.6295 0.5706 -1.9936
C 1.1757 0.1618 -1.8322
H 0.7877 -1.4581 -0.0339
H 0.6507 1.3019 2.0019
H -0.7653 -1.9281 2.9949
15

N 19.8597 36.1121 35.2030
C 13.1138 17.8287 17.6060
F 9.2964 1.8379 2.7846
C 1.4586 -9.9898 -8.9764
C -6.4297 -25.5650 -10.0144
H -11.4718 -26.8227 -32.9000
F -13.4347 -20.2605 -33.3266
N -20.5011 -6.7763 -9.7372
N -9.6630 8.8860 3.8418
F 11.4203 47.7200 46.4034
H 17.0230 28.2737 25.5601
H 12.9132 19.3729 32.2643
H -5.0468 -0.2455 3.1483
F -7.1343 -37.0847 -35.5975
O -11.4036 -33.2866 -36.2594
16

C -28.4357 -25.6215 48.6252
N -11.7914 -16.8983 33.7228
H -10.1768 -5.7754 10.0049
C 8.3899 3.7378 -11.1816
C 8.3494 6.0728 -23.5750
O 14.0519 23.5746 -34.0582
N 18.1003 18.6375 -31.5258
C 11.7734 12.6629 -6.9246
H -6.5900 2.7200 4.4114
H -32.6810 -23.2650 47.7468
C -18.8208 -30.2563 42.7254
F -20.1496 -30.8033 46.7711
F 0.4106 -3.5427 -3.0464
O 7.4280 22.8640 -40.1393
C 33.4036 31.7566 -46.2250
N 26.7383 14.1362 -37.3319
23

H -8.4690 182.3996 90.2355
O -14.8506 118.9546 180.2290
O 48.7411 95.0831 93.0276
O 62.9282 -55.9686 14.4295
F 103.0294 -95.4451 267.6607
H -258.4329 -137.9471 148.3234
N 114.1959 -178.7204 80.9990
H 54.9283 -351.7502 -557.7227
C 43.3999 -384.4251 -302.0096
F 205.9088 68.2789 48.8707
N -468.8646 146.0246 143.7121
C -777.3336 49.9745 -143.4159
H 11.0683 200.1953 -30.7611
O -153.0334 143.1603 334.7632
C -136.3614 -542.9630 -127.2603
O -374.0381 115.8582 -48.4603
C -255.2739 280.4749 210.7856
N 917.4646 -41.4110 -75.6924
C 1135.0975 -445.5629 -1.6018
C 160.9486 503.5049 187.0034
O 11.6744 125.8075 -581.2647
H 42.0559 320.9312 -422.4031
H -464.7834 -116.4539 490.5521
17

N 81.8110 -86.4615 -37.2876
N 49.3033 -48.1085 -27.6095
C 22.6537 -7.0926 -18.3382
H 6.6312 21.5640 -13.0070
O -26.0134 35.6055 13.7020
N -48.7580 35.1242 42.5567
O -46.7057 46.8445 42.1996
F -59.1284 32.7881 14.4478
O -32.7533 7.6349 -5.0806
F 93.7347 -107.1740 -45.9095
N 74.5328 -85.9901 -36.4447
H 58.7144 -103.7769 -44.1304
H 34.4893 -4.1361 -0.1316
H -5.1357 25.3648 21.3371
O -57.5417 74.8832 56.6340
N -54.6458 85.9404 15.3501
O -91.1886 76.9902 21.7116
21

F -150.3665 47.3532 212.3346
F -66.8667 31.1490 112.0550
F -70.7836 -15.5526 13.9985
C -12.4010 -43.0716 -30.5248
F 38.6136 -56.6881 -115.9081
H 88.1770 -41.1716 -94.7459
F 94.1762 -32.3984 -68.2447
N 57.5737 48.4309 -56.8787
C -43.5665 90.3891 -24.9322
O -167.1737 29.6539 235.1722
C -113.9618 16.5532 216.7892
O -117.6248 0.4743 177.4441
H -47.7949 -12.1894 -32.1182
O 3.5963 -116.4707 -171.0708
O 33.5622 -145.7102 -281.2848
H 121.2670 -117.1830 -244.0941
O 102.2948 -10.7759 -48.2951
N 168.7174 33.1054 154.0891
F 105.2839 118.5019 271.3734
N 98.7714 50.3211 49.4428
N -121.4939 125.2795 -274.6014
19

F 145.7525 -81.0051 -149.6770
N 95.8501 -47.4041 -96.4466
F 54.3265 -32.1550 -34.7009
N 17.9328 -2.4467 10.0436
H -48.7321 13.1839 81.0555
H -89.9399 34.3713 103.2527
F -91.8399 53.4441 80.6267
O -82.2288 49.7839 44.1609
H -22.5701 39.1628 -25.4763
N 157.2523 -85.9934 -164.3960
C 160.6705 -81.1786 -156.8684
C 139.8179 -68.9338 -125.6422
O 64.8556 -29.3029 -23.6806
O 16.4752 -25.7368 62.1095
O -49.7567 -9.0578 123.4981
O -121.8492 33.0622 149.2791
O -154.7715 69.4197 108.2365
F -132.9932 87.9365 65.0416
H -58.2520 82.8500 -50.4161
23

F 397.5852 -586.2133 -33.3236
F 214.1552 -217.0037 107.5031
N 234.0674 137.9290 30.3464
O 63.3796 5.7996 -112.4252
F 73.5602 79.7359 11.4739
N -255.0138 75.5093 125.1916
C -199.6073 -33.6567 114.5923
C -448.4011 60.2130 -248.0359
C -141.8843 133.5116 -134.3467
F 372.0659 -641.4822 -222.1557
C -33.7119 -489.0877 -214.0630
H -93.2003 34.9504 -430.3715
O -3.1847 156.7316 89.9525
O -535.2503 -58.6045 451.8951
O 139.7036 -532.7515 149.0616
O -173.7970 590.1704 351.5278
C -130.6254 745.6245 425.8802
C -267.3703 239.3126 38.0494
N 248.2376 -381.7447 -215.3360
C 560.9250 489.7811 -13.8737
O 327.9116 148.0849 -38.0969
H -309.3484 -370.7421 11.7743
H -40.1964 413.9327 -245.2203
15

O -9.7599 -18.1538 18.0330
C -3.4604 -10.8362 12.7602
C -1.4288 -3.4957 4.1677
C -0.0231 3.6588 -3.2130
C -0.4338 5.9240 -8.9696
C 0.1597 10.9777 -15.3085
C 1.9163 16.3504 -13.3339
N 4.6987 13.4492 -4.3828
H -1.7668 -2.6143 2.0187
H -9.7630 -21.3612 18.6048
F -5.3734 -15.9386 17.3406
H 0.2310 -18.4275 9.3613
H 7.0097 -0.2526 -0.8916
H 13.2145 13.2314 -12.1286
H 4.7793 27.4885 -24.0583
21

O -43.5241 37.7462 127.5609
C -42.6431 30.2997 84.1478
F -45.5913 14.5808 68.1941
O -32.6279 3.6149 55.8654
H 28.9094 -9.9100 -22.5258
C 63.7003 -35.0348 -61.9048
N 36.6875 -45.1964 -101.6416
F 65.6540 -62.7215 -116.0345
H 24.9166 33.7541 -73.8677
F -45.2970 40.9687 143.2166
N -120.6599 7.2106 146.8631
H -170.9185 -75.0752 157.9601
C -139.1912 -22.4927 111.1442
N -23.2796 100.6428 38.2822
F 120.8007 199.1430 -18.7716
F 248.4870 298.6259 -101.2042
C 279.5311 285.5009 -168.2978
C 198.3695 16.9907 -117.9947
O 84.0446 -253.0147 -35.3852
C -343.4740 -687.5191 -36.6844
O -143.8940 121.8862 -78.9221
17

H -56.3990 63.3098 25.7271
O -25.4524 41.3339 12.8215
C -10.0761 18.0519 9.2124
N 13.7285 -7.3537 -11.4378
O 27.2614 -31.6440 -15.8880
N 29.3321 -52.2496 -9.8707
O 31.3344 -39.2772 -7.7729
F 14.4502 -23.9268 -16.9958
C -0.7418 1.4429 8.3195
F -64.4920 60.1301 38.7358
C -59.7595 72.6608 35.5770
H -61.3308 58.3477 11.5648
O -8.1392 26.5705 5.6983
C 33.0904 -18.7110 -16.6666
C 37.3368 -39.4743 -17.3958
N 54.3750 -67.9053 -34.5219
O 45.4817 -61.3058 -17.1070
15

C -13.7656 4.5622 19.5530
N -5.3506 0.8607 9.4709
C 1.9522 0.9566 0.7491
C 7.0255 4.2414 -2.7721
O 8.9954 2.3638 -7.0168
N 8.7338 -3.3388 -8.8714
C 4.2771 -7.8754 -6.5758
C -0.8881 -6.7137 -9.9683
N -4.7716 -7.7640 -6.3245
H -17.4604 8.0299 22.9456
H -9.4777 9.2067 20.2063
H -4.5542 6.6510 12.4370
H 9.2314 -2.5161 -6.4829
O 10.2402 -6.1371 -17.2837
O 5.8125 -2.5272 -20.0664
19

C -54.8159 116.8869 -40.0397
H -32.4043 67.6324 -29.8998
F -10.2826 57.3427 -8.6332
F 18.8745 28.2398 -15.2307
O 41.4129 -22.3622 11.7054
O 32.7405 -65.7801 17.2431
O 25.2904 -91.4771 17.7676
F -5.9153 -89.4059 19.5220
H -44.0138 -52.8175 21.8402
F -54.2317 127.9178 -35.7415
C -52.7806 129.2848 -31.1180
N -40.8764 113.0366 -34.6317
H 36.0049 78.3452 -32.4419
C 65.3599 45.4140 -1.7165
N 82.8070 -4.5520 10.1735
N 75.3270 -57.5909 32.8991
F 15.3419 -107.4255 30.2852
C -25.2225 -145.8113 47.8821
F -72.6158 -126.8776 20.1350
16

O -9.9966 13.8146 -16.8684
C -5.3497 5.8804 -9.7932
O -2.3528 0.2370 -3.5079
N 1.3286 -6.1509 3.0148
C 4.4841 -7.9177 6.6076
O 7.3345 -9.0912 8.5808
F 7.6798 -5.0653 7.3307
C 4.2504 -2.4702 3.9206
H 2.8410 1.3429 -0.1216
H -12.2058 17.1401 -17.5547
H -12.7015 16.3003 -10.1804
H -9.9848 8.5953 -7.5343
H -2.3023 -3.2538 3.9474
H 5.6545 -8.4408 10.4159
H 9.2637 -10.4837 10.9724
H 12.0569 -10.4369 10.7703
18

N 10.0595 -31.4894 -62.3906
O 6.1216 -16.9815 -38.0521
F 0.0118 -9.4745 -21.7300
H 1.0521 2.3366 4.4469
O -6.8635 13.9311 27.4424
N -5.7738 18.3981 38.5798
F 1.0896 20.2722 36.1551
N -2.6518 12.1012 21.9391
C 4.6910 2.7195 -0.1869
F 9.9468 -33.6536 -69.1052
N 9.6483 -31.4127 -66.2066
H 3.6424 -31.2131 -57.2457
H 1.5015 -3.9285 -18.5761
H -7.1584 6.1861 16.4044
O -9.5966 13.9918 43.4408
O -11.1818 23.7688 56.6446
O -2.8011 25.0113 51.3125
F -1.7378 19.4366 37.1278
19

O -42.4543 -59.5304 -90.4553
N -22.1750 -38.0237 -50.5670
H -29.1800 -22.9035 4.0679
N -17.4621 -0.5985 37.6373
H -2.0092 10.2473 66.6925
C 22.6849 27.7921 61.5508
F 46.5389 43.2053 21.7728
C 45.8354 33.7321 -15.6151
N 43.9504 24.8979 -55.5090
N -46.9545 -57.2288 -88.4891
F -52.4513 -56.6255 -75.5147
C -61.7265 -45.7661 -46.1571
O -45.9962 -25.1481 41.7447
O -44.8589 -19.1582 98.9521
C -20.8127 -9.2022 117.0075
N 3.1767 18.5333 102.5841
C 38.4356 40.2221 20.8696
C 74.5642 55.3201 -35.5987
F 110.8948 80.2347 -114.9735
23

F -61.9082 -2.1857 -184.6846
O -45.4639 31.9655 -65.5603
O -50.2541 81.7358 68.3987
N 53.1002 164.1877 201.0844
C 37.4444 126.4690 325.4781
O -14.3091 -48.1611 283.6215
F -62.1890 -205.5027 -8.1298
N -54.2269 -274.0792 -243.0516
F 1.9821 -170.3250 -343.9252
F -22.7888 34.3086 -174.0248
N -63.8160 148.2716 -236.3261
H 84.1636 231.3104 -24.7042
C 80.8117 307.4375 157.6296
O -17.7226 332.9628 194.9229
H 59.6410 298.8924 430.8654
O -106.6736 88.2325 401.2129
N -182.5639 -17.7328 198.5096
N -140.6174 192.1718 329.2895
F 105.4959 -369.5672 -422.6263
F 153.1374 -592.2151 -583.2142
O -28.0517 -270.2673 -383.4424
O -39.7087 -180.9292 37.4374
O 314.5176 93.0198 41.2395
21

H 94.9438 -78.5217 -6.3907
C 56.7298 -40.0182 -4.5015
C 47.8175 -12.1360 -18.1188
F 36.5977 16.4528 -31.3960
F 8.7154 39.8661 -32.4908
H -32.7530 65.4592 -1.8278
F -83.6587 62.6118 25.2025
O -99.3215 16.6223 49.5259
C -69.8486 -66.4800 50.2349
O 94.3631 -84.6439 -4.3441
H 89.4662 -63.0957 -12.5127
N 62.9994 -12.1287 -23.9233
H 46.3609 21.6514 -46.3393
C 52.3654 -11.8377 -51.2369
C 72.7073 -35.7722 -101.2385
O 137.2235 -43.2379 -99.0457
F 162.2935 -37.6178 -50.7665
N 66.8051 36.1678 34.8852
H -130.6276 122.2442 156.0761
O -451.4222 249.0651 153.1150
O -161.7570 -144.6508 15.0930
27

N -99.0450 -115.0042 176.0663
C 156.5923 -22.0030 -39.0496
O 150.0672 15.4956 -45.7256
C 61.3252 212.9474 -351.8333
C 10.1919 -23.6650 -41.9903
C -166.4253 -168.1254 47.5338
F -45.1451 -113.4168 -111.3883
C 177.5941 118.8926 -72.0439
C 72.9118 513.8273 -252.5849
F -264.6770 -408.3703 190.2602
F -378.2941 -165.7192 249.8973
O -252.9708 -116.1182 602.8481
C -320.0881 131.7704 307.9813
O -232.8715 427.1670 -293.1284
H -67.4983 -628.3506 -407.8477
N 354.3882 -498.0015 97.1111
O 220.1387 -304.5510 34.5666
N -441.2639 135.2793 -247.3262
O -62.3508 661.2664 -464.3926
F 510.1602 -673.9219 266.1919
H 538.1844 426.1432 -368.1496
H 651.7082 -327.5715 52.7905
H 56.7438 486.1471 118.5689
H 553.7784 193.0524 322.9863
H -451.2038 128.4507 413.4248
H -311.5229 -39.3581 301.5655
N -420.4280 153.7371 -486.3324
19

F 55.1988 -75.1752 -123.7272
F 41.8648 -45.9708 -78.3189
F 11.6238 -35.1728 -18.5857
N -2.8808 -12.6940 26.4219
H -34.4131 10.5767 71.8081
N -42.5772 33.9049 85.7990
F -25.6118 53.6508 65.4703
O -15.8960 47.9643 13.3671
F 8.6828 39.6338 -42.1788
N 65.0114 -74.6355 -146.9752
F 58.7502 -77.9120 -127.1088
C 49.2542 -69.0219 -92.2908
F 11.9845 -41.5582 4.6717
O -15.7544 -35.5949 81.7529
C -41.5404 -17.0885 131.0126
O -64.5766 30.4309 137.8462
N -64.5735 80.5236 73.5109
C -30.6889 92.8816 24.6094
F 36.1421 95.2574 -87.0847
19

O -53.4062 -146.8479 18.5955
C -37.6051 -89.3860 4.6577
C -35.9779 -61.3925 -5.8261
N -18.4794 -25.6943 -18.1798
C 0.9810 31.0022 -24.7713
H 27.7438 78.6954 -15.5682
C 51.3749 106.0166 4.9488
F 55.9652 97.6815 18.0057
C 42.4013 55.9263 27.5700
O -54.7567 -157.2730 22.7599
H -64.6897 -160.0452 8.4292
H -69.0162 -150.9051 -0.7019
F -50.1151 -80.2425 -29.4647
N -46.3899 -38.1612 -42.8241
N -12.9521 18.0491 -44.9380
N 32.0921 87.7608 -32.8034
H 72.9607 147.5759 0.6829
H 85.8787 164.8868 38.9148
H 73.9906 122.3530 70.5129
20

H 50.1802 -84.4679 -76.3949
F 39.1426 -50.6928 -36.3947
N 32.6392 -28.7621 6.6432
C 33.0560 -14.7731 17.2482
N 4.2331 8.8121 29.8256
N -26.4263 28.2077 28.6826
H -47.7517 52.0744 26.8162
H -56.1182 67.0081 12.6757
C -37.2859 43.7782 -42.8958
O 37.1132 -88.0404 -72.8209
N 56.5042 -92.3192 -25.7168
O 67.0861 -77.9488 41.6409
N 60.4894 -17.3061 109.0396
C 29.7779 -19.1484 68.3068
H 6.2637 -41.7607 -88.4941
O -33.4604 10.1646 -232.6938
C -62.6995 71.3505 -292.1968
H -79.4979 102.3233 -140.8268
H -62.8746 119.7717 66.4791
H -10.3710 11.7289 601.0767
18

H 57.1193 -39.4296 9.7036
O 33.7055 -22.4867 3.5536
N 21.7544 -13.2237 1.8581
N 1.0616 -1.6032 -0.4178
C -22.6106 15.3727 -7.2525
H -37.7502 21.8102 -6.9907
O -43.1009 20.7486 -5.4010
F -31.1221 15.4064 -1.5606
F -6.1104 7.7150 1.4874
F 65.4876 -40.1876 8.0332
N 63.9453 -38.4742 8.4442
H 53.2786 -33.0857 7.3169
H 23.8297 -10.2172 -2.6472
O 3.1731 6.4218 0.8718
H -24.5414 16.2260 -5.2515
N -46.0369 27.1666 -5.2264
F -60.3150 37.2037 -3.8943
H -51.7677 30.6369 -2.6270
23

O 82.8684 -132.1282 -274.7712
C -11.6078 -98.5675 -268.8405
N 38.7303 -1.0658 -49.0597
F -88.9609 170.0418 57.3358
C -164.2771 201.2838 57.7092
C -129.6105 -8.3155 -97.6187
C -83.4707 -134.3000 23.8938
H 66.0067 -129.4436 72.6330
C 60.4476 10.9702 293.6732
O -45.3018 88.5718 -43.2161
F 216.9642 159.5803 -82.6927
H 125.8130 206.0157 -66.9904
O 284.8947 422.7162 180.3595
N 352.9213 333.6270 324.8109
F 47.9043 455.9625 263.2970
N -141.9654 -149.7672 -71.5448
O -200.1500 -337.7766 -624.8726
C -301.8665 -464.3276 -576.7573
O 10.1034 428.5154 -106.4371
F -75.8422 -295.9410 16.1037
C 36.2296 -593.6066 110.4259
C -117.9974 -569.9067 174.5669
C 38.1668 437.8615 687.9921
18

N 9.9302 -161.4841 31.7136
O 5.6165 -93.4207 19.1913
N -3.8529 -60.5201 14.4931
H 4.7762 -16.5731 11.1544
F 2.1973 54.6504 -4.3675
C -9.1136 96.1184 -16.3437
N -12.0958 102.1666 -29.7019
C -11.9572 90.4399 -21.3051
N -0.7403 29.6589 -19.7432
F 18.6370 -168.9050 36.9245
N 9.6850 -166.1524 37.1505
H 5.5862 -144.3958 39.9746
H -14.2982 -68.2351 24.7491
O -3.9828 -3.8299 16.7914
O 7.5424 72.9244 2.4559
O -0.6476 131.8095 -29.3620
N -3.6491 166.1587 -62.2315
F -3.6332 139.5894 -51.5434
23

F -237.0393 308.8195 -153.2992
C -121.5942 165.7777 -118.8560
H -110.6354 53.5292 34.5493
N -13.5726 -7.9648 208.5026
O -39.9501 -127.8303 236.4409
C 53.2031 -191.6810 149.0368
N 6.1218 -300.1396 -41.6360
O 99.8924 -80.4005 -130.9732
H -125.0882 184.5963 -306.9417
C -310.1682 213.6571 -170.6967
N 62.0755 -25.8207 -6.6002
F 254.2410 -110.2779 283.9344
H 441.5760 362.1983 141.4904
N 316.1583 207.7275 -88.4867
C -83.1393 147.7767 175.3777
C -165.3414 -239.9604 158.6010
C -460.6451 -436.1478 -43.3459
H -143.4308 -408.2878 -115.9054
H 654.9462 -4.3705 -508.4188
N 747.7134 -418.7308 67.5805
C -2.9683 537.3402 317.6103
C -311.9583 98.6812 250.1102
C -510.3964 71.5087 -338.0745
18

H 29.7888 -171.9777 54.3314
F 23.6696 -96.8924 32.2030
N 24.3066 -54.3091 19.2489
H 15.8526 3.9230 -3.0194
F -1.1522 76.3781 -29.2151
C -22.1902 107.0151 -33.4680
N -30.8401 101.5364 -34.9320
C -34.8225 80.6868 -9.6230
C -12.0457 42.5274 13.9525
F 34.3050 -185.3980 48.5567
N 28.7820 -185.4632 62.8145
H 20.0013 -164.4479 57.6808
H 10.4488 -63.6402 42.3548
O 33.1435 0.3680 9.2558
O 10.1652 66.5419 -26.2494
O -31.8638 142.8425 -71.7854
N -43.5802 173.5397 -80.4997
F -53.9688 126.7696 -51.6063
20

N -37.6829 45.3721 143.1239
F -12.8452 28.6442 85.3137
N 7.5022 21.0289 55.7735
O 37.0399 5.4951 -4.7938
O 38.0069 -25.3133 -69.9976
F 24.0326 -31.8661 -103.2352
F 0.1613 -25.9581 -84.4819
N -30.6381 -13.1867 -60.1808
C -50.5637 11.4361 -25.9146
C -48.2571 47.6515 153.5817
O -17.5381 39.6187 177.2354
N 14.4264 36.1269 192.4763
C 62.7634 33.7343 123.4916
O 60.4853 -9.2080 7.6877
O 50.4727 -80.8267 -174.2902
N 17.0845 -93.2152 -316.8362
O -29.3707 -67.0933 -346.3033
C -55.4651 -33.6955 -184.8884
H -70.3588 26.9093 36.6393
C 40.7444 84.3457 395.5989
23

C -123.9765 66.0381 21.2301
F -57.5576 -55.0562 57.0207
H 27.4934 -104.4663 -21.8237
O 150.1153 -105.8984 62.5016
C 124.6831 -52.5151 5.4383
C -6.1159 -30.9033 35.2176
F -42.4281 -27.1524 46.9026
C -4.9570 -10.3096 -95.1790
C -64.8113 158.7496 -165.4672
O -121.2387 104.6473 65.2818
C -265.4693 33.4633 75.0157
F -364.8427 -60.4714 66.3635
H 342.3962 -115.6717 -45.0154
O 453.4912 -70.6487 -99.0161
O 153.6977 -110.5824 -98.8439
N -341.7838 -175.3507 -10.7675
F -731.9399 -139.0546 3.4663
O -353.7322 -15.5311 119.3282
H -256.9341 57.3850 -9.5308
F 79.6517 74.8397 -195.0300
H 166.6497 64.3267 383.9986
H 689.0637 -112.6737 28.5287
H 548.5451 626.8362 -229.6202
19

F 84.6951 82.4932 -271.0126
N 56.7506 51.9461 -176.0653
F 44.1872 41.8562 -103.1061
N 34.1351 13.6709 -18.0802
H -14.3294 -24.3093 96.3521
H -55.7447 -53.8266 172.6239
F -71.5866 -63.9284 174.1259
C -77.4132 -58.2841 131.8620
F -43.2977 -16.6036 33.3242
O 94.6914 93.4169 -292.4899
F 97.1064 102.1352 -285.8146
C 95.0456 95.8264 -258.9644
F 72.2360 53.5015 -115.1940
O 49.1583 10.2660 -3.1981
O -0.9129 -25.3529 123.2793
O -57.5884 -59.3544 224.4730
O -108.6772 -85.2058 256.1306
F -122.5734 -92.3731 230.8294
F -75.8822 -65.8745 80.9247
17

N -65.7714 55.4822 -21.7032
O -35.0295 35.9045 -18.5902
C -18.3492 14.8871 -4.6413
N 0.0944 -6.1560 -9.6584
O 32.3722 -23.9866 -6.1432
O 41.9567 -43.4272 24.2349
F 45.8901 -33.4289 22.9874
F 30.6219 -25.0971 8.0690
C 6.5947 0.4551 13.8365
F -76.1864 45.5032 -11.1832
C -70.5337 64.1020 -13.8341
H -80.5199 54.0732 -31.6150
O -9.8050 24.7129 8.5873
C 21.4259 -15.9693 -7.4562
F 42.6832 -31.8953 14.5809
N 71.2128 -55.4610 17.1408
O 63.3434 -59.6989 15.3882
18

F -7.7731 -137.0609 139.6149
F -0.6456 -75.3641 81.4801
O 2.5295 -47.4197 44.7451
H 9.0125 -8.8197 -2.5429
H 13.3370 46.5150 -58.7213
C 9.1281 81.2390 -72.4276
N -2.0136 84.6664 -81.5720
C -4.0813 68.5987 -54.2171
H -0.9107 23.3834 -18.7932
N -8.8066 -149.4688 153.6619
N -18.7329 -144.8786 143.6917
H -16.2235 -134.4371 127.2062
F 1.1600 -39.4625 25.7692
C 21.7502 10.9251 -21.7439
O 14.6521 43.9840 -72.3108
F 10.6971 107.8633 -117.5707
C -4.4061 142.5196 -121.5694
C -18.6730 127.2170 -94.7004
19

C -70.4127 3.6718 -80.5101
F -43.6816 0.8107 -48.0006
H -31.0944 -6.9334 -29.8493
C -6.4712 -7.9435 1.1082
C 17.9757 -9.0319 27.7677
N 40.5886 -2.3410 48.4590
F 48.6377 4.6259 51.7073
C 45.2324 9.0119 39.8646
O 24.3394 10.7750 11.3768
O -74.5996 3.2136 -86.3853
C -76.2756 1.7020 -86.1609
C -76.7415 3.2917 -79.0519
H -40.8947 -11.2270 -28.8225
N -19.1629 -18.8024 4.1778
C 9.9841 -13.5707 38.5364
N 46.5049 -8.4579 65.3746
N 68.1901 -1.4420 70.1548
C 74.5852 16.2662 57.1217
H 63.2961 26.3811 23.1317
22

H -111.1748 -12.8383 -136.0494
N -59.5688 -91.4984 -83.0601
H 14.9634 -106.4496 14.2954
C 115.1979 -138.2357 65.8048
H 134.4067 -71.6165 59.2678
O 29.4416 44.2552 -0.4960
H -22.7016 87.6734 54.3957
F 50.2323 156.0290 -34.1074
C 24.6672 275.8229 -27.5786
O -138.8174 83.5509 5.3645
C -191.2489 -45.1559 155.1068
F -350.4077 -140.2809 114.5469
H 204.0726 -218.5199 33.0796
O 518.7530 -77.0689 -98.8119
O 356.7037 202.0955 -161.2588
N 77.6517 184.1822 -57.8156
H -177.1026 -68.9854 47.0328
O -260.1815 -437.9590 294.2360
N -135.4271 19.2836 150.5634
F -412.6404 172.4164 -408.2384
H 148.4668 592.6744 -88.3162
N 184.7138 -409.3751 102.0388
14

F 3.2800 6.8731 11.1878
C 1.7496 3.8230 6.2303
N 2.8477 0.8153 2.1517
C 0.2302 -1.9560 -0.6680
C -4.5416 -4.7881 -7.9785
O -5.8918 -5.9523 -12.3160
C -4.5386 -1.7042 -9.0480
N -4.6865 -3.2538 -4.0143
H 1.7338 -3.0847 3.0646
H 4.0805 8.1127 14.2249
H 3.3036 6.3543 9.0055
H 4.0282 7.6094 4.2574
H 0.0374 -6.4817 -4.5100
H -1.6325 -6.3670 -11.5874
17

F 30.9951 57.2442 11.6361
N 19.1360 35.5805 8.1885
C 7.9489 25.0275 9.6753
F -0.5305 6.9302 1.1159
F -15.9914 -20.5964 -6.2073
N -17.6645 -37.5867 -12.8893
F -9.7748 -38.7075 -12.6605
C -12.4158 -36.4436 -12.5785
N -3.8677 -17.8357 -3.0540
C 35.2323 62.7851 15.8148
C 33.8876 66.9196 17.1270
H 27.0917 57.3308 9.7067
H 8.1951 32.0407 18.2349
O -6.0789 -2.7823 -4.8869
N -39.2723 -46.7674 -1.2748
C -35.0113 -71.9474 -17.4327
O -21.8794 -71.1918 -20.5153
18

F -54.7225 -41.4352 -202.4896
C -37.0773 -17.9995 -119.1197
F -19.8348 -10.1543 -86.5738
O 14.9281 -9.3414 -0.7053
F 33.7717 13.5166 75.8677
C 35.2784 23.8037 131.9932
F 33.5721 30.9227 135.8018
N 20.1618 25.7093 101.3908
O 2.4608 9.5463 14.9380
O -59.6036 -41.8182 -224.4795
F -56.5713 -50.2524 -218.7546
C -62.3358 -47.7463 -201.5886
C -8.4634 -22.5220 -83.5385
F 6.8952 -9.4752 30.7637
O 33.7585 23.8530 118.1277
O 54.1408 46.0752 189.1649
O 40.4087 43.3115 190.8129
H 23.2327 34.0061 148.3888
21

C 131.6473 91.9741 -454.3879
N 91.6507 50.7725 -268.2214
H 21.5034 34.0905 -75.0818
N -21.0277 30.2236 37.3458
H -47.9281 -17.9884 187.1723
N -84.1539 -84.0267 250.4996
F -42.6071 -87.9598 191.4949
C -35.4287 -69.1950 144.6100
H -30.7451 -15.0530 -12.0786
N 152.6419 93.7340 -495.6647
C 108.9676 128.7686 -415.6129
C 32.2046 133.0207 -274.3399
O -34.2057 94.5400 43.8519
O -79.6495 15.2883 150.6572
C -53.5330 -121.8909 196.0870
O -3.2984 -113.5040 172.8576
O 108.5547 -113.5374 -18.1098
N 210.8656 -34.1993 75.1429
H 211.0477 130.6977 -34.9007
F -307.0780 -80.9348 434.9742
H -329.4283 -64.8206 163.7042
26

N -373.0167 -392.0849 194.6254
F -91.8335 -105.8633 193.7556
N 120.1235 117.3516 312.9497
C 192.2459 195.0484 227.9585
F 223.0585 172.2451 103.7566
H 154.1935 113.2737 7.1937
N 172.5365 45.9745 -240.6938
F -12.7492 19.1229 -456.1177
F -458.2397 52.5944 -233.2084
C -367.3978 -338.1714 83.9491
N -286.6227 -157.1107 216.4381
N -122.4364 -348.6191 -108.9981
H 45.4148 -16.7807 317.1780
O 48.7153 97.2670 582.7396
C 99.3510 -59.0973 358.2092
O 453.4922 173.6721 260.6861
C 311.6646 141.7768 -341.9459
H 263.6714 -85.6575 -618.6298
C 322.7521 -117.5704 -106.7445
C 356.0108 442.5209 64.1683
H 10.0861 -405.4643 -502.2890
H -450.8194 -125.0255 -133.7095
H -426.0409 567.0956 639.4774
H 291.9070 -252.0018 -778.3661
N -537.5985 16.5418 -220.4796
H 61.5315 248.9622 178.0972
23

F 45.2523 105.8591 -62.1418
C 37.8274 -54.8407 37.6820
C -105.1176 -120.6038 151.8981
N -77.1966 -109.5182 280.6595
C -32.2526 -87.3318 81.2290
F -29.3210 -164.6430 -3.7759
N 3.8787 126.6076 -159.9360
F 347.6831 34.9725 -78.6897
H 23.7455 16.0807 44.9747
O 35.5747 221.4954 30.1773
F -46.7140 78.7786 -147.7736
F -43.4740 -70.8749 231.7656
H 209.2335 42.7560 328.9790
N 350.0641 98.5587 -35.4097
C 69.2241 444.5219 -292.3997
N -685.4682 -235.7238 102.3998
C -551.0488 -688.1949 -334.5427
N -86.4037 -260.4633 273.3787
H 862.0500 756.6953 118.6173
F 533.7888 -146.5905 -304.6453
O -87.4384 -40.2394 298.3787
C -39.2047 97.7060 -415.2164
O -734.6825 -45.0072 -145.6087
19

F -122.0383 -129.1529 144.2147
H -73.1891 -78.2337 81.9081
N -55.5358 -53.7343 45.4596
C -16.1277 -16.7584 -7.8331
H 32.4042 28.0633 -71.6649
H 72.5213 73.3066 -85.7850
F 88.9521 96.1176 -81.9119
F 79.2220 76.8355 -52.5795
C 36.3540 29.0314 7.0354
N -125.8306 -136.0048 158.5408
C -136.8861 -136.4613 143.6839
O -125.8364 -128.0272 125.3761
F -73.7181 -61.6349 30.8974
N -41.2621 -18.5281 -28.6212
O 24.8252 37.5811 -89.5339
N 91.2190 87.3601 -121.4419
N 122.9715 128.2608 -126.2292
N 141.2826 119.3248 -77.7092
N 80.6721 82.6544 6.1940
13

C -1.3613 -5.8542 -1.7119
C -0.6133 -3.0831 -0.8951
C -0.5848 -1.8735 0.4764
C 0.4860 0.6599 1.3384
C 0.5940 5.2825 0.4859
O 0.0706 6.7114 -0.0470
N 1.0291 4.9652 -0.4432
C 2.9983 4.1349 0.6713
N 0.9884 5.1781 -0.1700
H -0.9321 -5.9227 -1.6704
H -1.1192 -7.7329 -0.1269
H -2.1403 -3.7842 0.6249
H 0.5846 1.3186 1.4676
14

N 13.5650 6.6380 5.3121
C 6.4052 3.9454 2.6377
C 1.6452 2.4146 1.9216
C -3.0732 -0.4192 -1.1384
C -8.8606 -3.2402 -2.3755
N -9.6833 -5.3824 -4.0930
C -10.4688 -6.7332 -6.0659
C -7.2601 -4.1567 -4.6354
H -0.3692 -2.0662 -1.4256
H 15.1872 7.1413 5.1934
H 10.2699 3.4192 4.9593
H 7.9453 1.9529 2.0210
H -7.1039 -0.1121 1.4079
H -8.1988 -3.4015 -3.7191
19

O -65.0667 45.5857 -203.3473
H -40.0833 28.8612 -126.5377
F -27.3987 23.7412 -85.7195
H -0.0844 10.3943 -18.6256
C 19.4380 -9.8813 61.2966
N 34.7099 -27.1420 121.9452
F 44.5198 -35.2426 139.2582
N 34.3716 -34.8654 112.6720
H 14.0428 -17.9506 41.4674
O -71.5105 51.7967 -216.5411
N -74.8501 52.7134 -216.6451
H -71.5653 51.7043 -200.1762
F -27.4916 30.5878 -105.9020
O -3.9560 12.0948 -27.5111
O 23.0733 -3.0249 62.7854
O 44.7425 -28.6657 152.1407
O 59.4231 -51.2816 197.6469
N 58.2773 -56.2516 198.2784
H 49.4082 -43.1739 113.5149
18

F -81.9051 -74.9898 -58.9813
C -52.2426 -39.2106 -33.0765
C -34.5172 -26.0889 -23.1131
N 7.5308 0.9285 4.4072
C 41.1087 28.4001 29.5342
O 56.1022 50.5509 41.0710
C 52.6242 51.6235 34.7383
N 37.8278 32.8078 18.1213
H 9.8292 4.7308 0.3229
O -90.1780 -79.9212 -67.4202
F -93.8253 -82.6700 -62.4363
N -85.5906 -73.6782 -55.9391
N -27.1946 -20.7719 -18.4667
O 3.9712 2.3646 25.1762
N 41.7332 41.3578 34.8255
C 66.3739 62.4132 55.5106
N 79.2285 71.0883 45.7244
H 69.1236 51.0650 30.0015
16

F 11.1710 34.0791 -46.5377
F 2.4229 19.8645 -28.5397
H -5.0715 9.2203 -12.0147
C 3.9766 -8.6920 4.6287
H -6.9162 -26.6840 25.7594
N -6.7279 -26.0381 31.1513
F -10.2714 -20.7789 29.8400
N -11.1528 -10.3455 24.1689
H -4.1436 3.4828 -5.0095
N 17.2612 35.0408 -56.4363
H 18.9767 34.7072 -52.1107
C 12.0928 32.9819 -35.8551
H -6.3263 -1.8593 -1.8501
N 0.0744 -18.3735 18.4986
O -7.9876 -26.2463 43.4796
O -7.3781 -30.3592 60.8272
23

O -63.6884 -141.9125 -102.6240
F 18.1389 -64.3642 -52.3120
C -46.0741 29.8996 -89.3191
C -177.3825 13.2157 -82.6628
F -73.2427 -61.9836 28.0657
H -242.0069 -112.8094 10.3613
N -48.5627 -172.3498 32.5170
C 56.8474 -5.8169 40.7128
C 190.0057 72.0512 205.0047
O -69.2238 -65.6127 -112.7063
N 64.3413 -13.7851 -118.0838
N 118.2938 213.5812 -218.8139
F 55.0106 424.1363 -13.4992
O -60.6507 -83.4093 159.0119
O -14.0596 -385.0217 -7.5183
F 95.9657 -98.2478 203.2578
F -54.7316 -38.4755 14.4836
F -163.9845 -417.4653 -233.3873
O 238.2999 313.6990 34.6207
C 268.4345 116.8080 130.4792
H -105.8878 -147.0952 -312.3354
C -202.4976 651.5328 96.9780
C 216.6551 -26.5747 387.7696
19

O 106.8373 42.3769 -53.8063
N 68.2954 28.2143 -35.9215
C 52.7817 19.0632 -23.1548
O 21.9455 3.4870 -5.6291
C -24.4145 -14.0571 18.6611
N -62.2389 -28.5692 34.5225
C -82.3273 -32.6794 40.1952
N -79.8049 -24.0977 30.7641
N -43.7206 -3.7408 7.1239
N 114.2016 48.0986 -57.3265
H 121.8712 48.8605 -60.4407
O 117.9130 44.1766 -53.7542
H 73.3308 25.5778 -30.8367
H 48.0051 4.2314 -4.7758
H -7.7402 -16.1750 24.2988
H -70.3009 -31.3738 46.4307
O -119.1705 -43.7278 55.5067
H -133.8243 -43.6459 49.5484
H -101.6396 -26.0197 18.5940
19

N -41.0074 74.7302 -73.8282
C -23.5398 48.3216 -50.0862
H -13.1348 39.4787 -48.5469
C 1.3327 17.9197 -30.5033
N 14.3641 -12.8038 1.2499
C 21.0438 -45.5411 40.9283
F 22.4849 -60.4481 68.7030
C 18.7792 -57.9941 76.3214
C 7.0644 -33.6093 54.2603
H -44.1871 81.1848 -79.8182
H -43.1819 82.0198 -93.5716
F -40.1055 85.2391 -92.3009
F -15.3326 51.5862 -82.7885
O -2.1646 33.1357 -69.3909
C 11.2669 2.7869 -25.9480
O 29.6011 -44.6572 38.2989
C 37.5821 -86.3566 101.6179
F 37.3491 -96.1770 139.7190
H 21.7854 -78.8156 125.6840
19

F -0.8906 153.1960 100.9829
F 19.3109 100.6243 55.9508
H 17.1744 76.3129 14.5856
C 22.8953 26.9884 -21.8818
H 13.9849 -40.9134 -60.7608
H -4.5470 -95.6925 -68.6783
F -18.4996 -117.5572 -51.3716
O -30.1172 -106.8311 -16.8430
C -34.9529 -49.0821 33.0710
H 3.6379 177.2765 118.9633
C 9.1917 173.0347 95.4267
H 30.9883 159.9623 78.6991
H 30.5757 92.8974 -11.9388
N 44.2858 50.4058 -60.3178
O 38.5379 -22.7830 -97.3956
O 12.9234 -96.6493 -88.6896
N -26.9560 -157.3217 -65.6747
F -42.2930 -188.5119 -5.8920
N -85.2499 -135.3560 51.7645
21

O -64.2755 -37.1026 -223.0571
F -18.9332 -29.1674 -153.9604
F 13.6483 -12.6966 -141.0688
N 73.6779 47.2838 -88.2537
O 62.8534 54.4129 6.5572
N 23.5471 45.0425 123.1340
C -30.9732 4.6051 196.6819
F -90.6691 -30.5824 224.6044
H -94.1340 -56.1930 181.8496
F -58.2033 -57.7079 -241.6017
F -3.1292 -46.4275 -276.1769
N 32.5874 -37.5394 -286.7352
H 145.5380 32.3509 -216.5314
C 198.1635 77.2385 -180.7137
F 161.9942 158.3943 -62.4034
H 66.4643 150.6285 100.5632
F -100.6280 131.5695 211.5338
H -242.3487 65.8798 334.2485
N -230.8115 -98.0031 291.2153
H 37.1138 -261.3187 44.3527
F 118.5177 -100.6672 155.7618
17

C 19.6115 -7.3198 -55.6574
N 13.4195 -1.0608 -33.2239
O 5.7979 -1.1532 -14.9178
O 0.4244 3.6831 4.9214
H -8.9045 1.1235 27.6936
N -13.0089 4.5040 39.2806
F -10.7918 3.6227 34.2427
C -10.0213 0.0457 20.0788
C 0.7589 3.0344 -2.0825
N 22.0580 -6.1961 -64.1622
H 20.2172 -4.0241 -61.8483
H 12.1356 -6.4022 -54.7426
O 9.6159 0.6044 -10.3353
H -5.4974 1.8584 21.7002
O -14.4349 0.9275 42.1921
O -24.2010 2.5612 59.3457
O -17.1791 4.1912 47.5149
16

C -21.5095 -18.5996 33.3531
N -8.4473 -11.4602 21.3668
C -5.3558 -3.8778 4.9659
O 9.4843 3.0022 -8.6175
C 8.1357 6.2112 -18.2475
O 9.4050 15.7070 -25.3769
N 9.6741 10.0186 -21.0207
C 6.3878 6.4034 -5.1419
H -4.7290 -1.2204 5.8247
H -25.1419 -16.9257 32.5331
C -14.8923 -21.1452 30.9468
F -22.3528 -18.1210 33.7309
H -0.5607 2.0720 -3.5545
O 12.3001 16.7699 -28.7414
C 26.7351 18.7751 -30.0192
N 20.8673 12.3905 -22.0015
16

O 42.3670 20.4856 21.8911
C 23.8786 11.6148 11.1061
C 11.1075 8.5494 8.4559
F -6.8084 0.6940 -5.6432
F -25.9266 -6.1032 -16.2729
N -21.6940 -12.2131 -23.9119
N -19.5106 -10.5459 -16.9432
C -14.5732 -8.7390 -11.2611
N -2.2984 -2.6874 -0.7600
F 42.3558 18.9135 26.1463
H 46.2180 18.3749 24.4099
H 33.6034 11.5524 21.8155
H -5.0466 8.4558 2.4870
H -23.2632 -5.2619 -12.5166
H -41.0782 -21.0943 -11.2171
N -39.3310 -31.9955 -17.7858
23

H 8.2405 202.9106 262.9728
C -48.9399 57.2102 184.0843
O -167.4079 -7.7337 289.1510
F -230.5082 -121.3107 -27.7246
F -114.6161 -234.9077 -44.4381
F -29.0463 -256.8007 -142.1331
O 132.6822 -118.3098 -208.1410
H 219.3199 119.5129 -164.7237
C 88.3133 150.7854 36.1672
F 90.1530 388.4735 265.6219
F -33.5431 190.7586 17.8786
F -76.5827 315.8994 122.7339
H -203.7764 -32.9617 315.0785
F -42.0079 -548.0735 356.5075
C 375.5011 29.0966 193.7756
O 368.0771 240.4825 194.7556
O 67.8087 23.7554 -591.0074
O -244.1310 -138.0979 -209.9659
H -83.9680 98.8442 -24.6531
C 143.0801 -481.0275 -917.9656
O -189.8057 -234.8610 -732.8257
H -30.2686 486.3694 366.4378
H 1.4262 -130.0144 458.4134
19

F 55.7668 11.4007 -79.7646
N 37.8038 8.1558 -59.1216
C 26.2079 8.3707 -63.8778
C 10.4695 5.4339 -41.0732
N -14.5007 -1.4745 -4.1604
C -35.8025 -10.5435 48.6201
C -43.7385 -11.3493 83.7369
F -38.3270 -11.8166 96.3227
C -18.3229 -6.9473 72.0963
O 60.3102 14.1161 -85.4827
C 62.8753 15.7558 -102.5726
O 54.9023 21.3310 -105.8094
H 34.9631 16.0931 -112.1511
N 22.8272 0.5814 -100.3067
O -6.0105 -2.4261 -44.2835
H -31.4521 -11.6335 37.4723
N -58.0229 -12.5538 125.5137
N -67.3014 -14.9607 174.5470
N -52.6475 -17.5329 160.2944
14

N 6.0165 4.5722 -1.8295
C 3.1623 3.1235 -1.1135
C 1.5682 2.2407 -0.0019
C -0.5161 -0.5887 2.1541
C -3.5575 -2.4543 2.2972
N -4.9968 -3.2622 1.7045
C -5.5130 -1.6839 -1.0050
C -5.3517 -2.7995 -0.9999
N -4.3456 -1.5370 -2.1109
H 7.8245 3.8517 -2.3271
H 6.7552 3.8345 0.0495
H 5.3649 0.4958 -0.2709
H -2.8612 -3.1971 2.7592
H -3.5500 -2.5958 0.6944
18

F -24.8815 -87.7504 -46.7182
O -18.1175 -47.6505 -28.5381
N -13.5177 -29.8616 -20.5271
H 8.1783 -1.4808 4.1581
F 16.7594 33.3083 22.0043
O 17.3614 51.7219 32.6509
F 13.2168 53.9871 28.0632
N 11.9254 36.6965 15.5488
C 3.1942 10.5247 -2.0829
O -32.2036 -92.4546 -54.3316
N -33.7808 -88.1222 -49.2959
H -34.7248 -78.9772 -46.8591
H -5.3302 -21.8320 -16.7694
O 6.4651 2.4821 17.8935
N 21.1074 47.5574 34.3905
O 21.6903 72.7095 44.3458
N 25.5228 78.7771 39.8646
N 17.1351 60.3648 26.2026
21

F 233.5899 190.8159 -67.4031
C 127.1975 113.5995 -39.3508
H 49.9141 55.2313 4.5045
N -3.8429 -65.5839 51.4809
F -82.5327 -166.8700 101.6881
H -131.5771 -214.4868 120.5233
F -132.8093 -145.5342 33.8088
F -83.4961 34.2605 -71.6519
H -17.7894 251.0359 -180.4505
F 260.5112 182.9860 -46.8765
F 204.0405 157.1261 -45.2918
N 112.1758 85.7801 -29.3361
H -26.0867 20.8583 -3.9819
N -12.7134 -50.8176 52.2423
C -21.0539 -176.8010 138.5819
N 21.6251 -268.4559 185.8963
F 5.4194 -270.4683 213.1781
N -18.4614 -255.9663 244.2258
H -53.6046 -92.9430 18.9360
N -315.0636 -37.0796 -226.2594
O -115.4424 653.3130 -454.4642
16

N 25.4402 -38.5540 48.7540
C 12.9621 -22.8058 18.5158
N 5.4349 -13.2169 3.7591
N -3.5086 -5.0672 -5.8739
C -16.5788 11.0620 -20.8670
H -20.7673 24.1084 -32.2272
O -17.5368 34.5553 -24.3285
C -6.4763 16.8572 -6.7629
C -1.4588 4.3208 5.0806
O 27.6211 -44.0239 50.6453
H 33.3079 -35.2243 45.1163
H 6.3541 -18.1621 37.6155
F 1.6282 7.9665 -8.7608
H -15.0133 15.2622 -25.8571
O -14.8153 28.1717 -44.4165
N -16.5933 34.7502 -40.3927
16

F 31.6286 86.1941 20.3857
F 27.4760 48.9075 10.2291
F 11.9891 20.6921 6.8050
C -4.8223 1.5046 -3.2435
O -27.8966 -38.3211 -11.0166
H -27.4427 -57.1996 -25.4007
F -30.9517 -55.6662 -20.9586
N -19.4961 -29.9101 -13.0962
N -5.4941 -7.0535 5.4726
N 38.2768 94.0139 30.6653
H 37.0031 80.3452 31.4279
C 40.2291 64.0542 31.6569
H 1.1894 2.1122 10.3350
O -7.8524 -60.4971 -16.0779
N -34.2887 -73.2130 -22.8264
N -29.5472 -75.9631 -34.3575
22

N 44.8886 -51.0794 145.3739
O 13.0449 -39.9123 138.2417
O -23.2736 -35.4336 48.6941
O -87.3653 -107.0525 -79.8866
C -38.8295 -43.5429 -26.7880
F 12.4958 38.4670 -98.7046
N 81.5718 84.2762 -90.8641
O 77.4555 118.6624 -124.9447
C 83.4659 95.7945 -27.2584
C 50.9155 -32.8471 179.5226
C -57.5205 -279.9870 200.1966
F -152.2644 -386.0872 88.9471
H -159.1451 -311.0911 149.2139
O -168.5681 -150.7738 318.5142
N -118.6208 120.1511 91.1668
C -13.5939 467.7423 -47.1934
H -59.2076 475.7044 -233.7526
N 90.8629 95.9435 -525.3205
C -35.2776 -331.6257 -149.8309
C -33.4453 -191.2490 18.8110
F 182.2418 200.4703 99.0722
H 310.1692 263.4701 -73.2104
17

H -37.9362 62.9586 12.7975
O -17.4152 38.9364 8.6786
C -13.1041 14.4421 9.4049
N 2.9161 -6.8516 -12.2800
O 18.2192 -27.9533 -14.4118
N 23.1071 -44.3210 -5.7639
F 24.6203 -34.7382 0.9302
F 16.3088 -21.3979 -6.6441
C -1.0247 1.8441 18.6597
F -41.3487 59.0619 22.6014
C -37.3999 64.7262 21.1530
H -38.2807 57.0016 5.3905
O -11.7510 18.3347 11.2462
H 11.0036 -32.9668 -15.7402
C 17.7897 -36.1020 -16.5127
N 40.4774 -58.2218 -27.4048
O 43.8182 -54.7530 -12.1044
18

F 68.3652 171.1071 -127.2849
F 47.8153 106.2137 -76.1409
H 33.7349 57.1514 -41.7629
N 1.2332 7.5302 8.6065
H -27.9929 -67.2300 53.5352
F -49.7863 -109.1523 79.7871
F -54.4237 -124.1359 80.6345
C -30.0060 -88.7966 54.5711
H -13.0223 -15.8698 6.5594
N 86.2783 197.2342 -141.5246
C 77.4068 188.6798 -135.4127
N 69.3774 169.0366 -107.8295
F 22.1093 60.7187 -29.1485
N 9.8008 -17.9716 13.2385
O -41.4028 -82.8746 73.7043
N -63.2353 -146.2733 103.0236
N -81.6316 -168.2874 94.6425
C -54.6204 -137.0804 90.8014
14

C -15.6609 -4.5623 23.0851
C -3.8334 -3.3331 7.6599
O 4.1492 0.3356 -5.7836
C 8.0930 7.2467 -10.2689
C 11.5326 9.1746 -11.6573
C 10.8196 4.2840 -13.3537
C 6.0417 2.0951 -7.5074
C 3.2153 -3.3747 1.2044
H 3.0988 -10.2045 5.0302
H -20.6437 -3.3720 27.2735
C -21.2841 1.1547 21.2402
F -8.3831 -3.4960 13.0524
H 7.5972 -1.1779 -24.3337
O 15.2579 5.2297 -25.6411
23

F -320.3295 14.3304 98.2493
C -202.6843 15.3927 83.9733
C -176.3719 85.9718 98.2495
O -227.1369 5.0236 -10.6724
C -91.4886 -100.2095 -41.2654
N 11.8998 -384.9930 -43.5173
C 213.8565 -169.3561 -122.0428
C 308.5811 87.9175 86.3090
H 293.1431 353.4082 221.3164
O -334.8447 87.6866 56.2319
H -174.1225 204.2732 -220.6296
H 51.0889 445.6556 -210.9279
C -228.4686 281.3152 96.7131
H -402.2270 -57.8041 173.5884
H -102.4206 -163.7811 10.9105
C -132.5387 -336.1662 -124.1724
F 48.3638 -329.2378 -466.5813
H -201.5884 38.1076 -54.9866
H 638.4833 -71.1923 393.2534
C 398.6838 -105.4272 27.1265
O 346.7460 317.1970 73.7893
O 2.7568 -8.5420 76.4515
F 280.6184 -209.5700 -201.3665
23

H -118.0048 -86.7224 74.5443
O -85.2497 -29.5054 131.9036
C -132.4139 5.5096 -18.7666
H -111.5137 -12.3262 -90.0958
C -142.6722 -99.5365 6.3681
O -234.2858 22.4458 18.0639
N 44.4446 -102.7749 28.8746
F 246.6588 -75.1470 -116.7547
O 107.6176 -34.0887 -90.7000
C -92.5870 -275.4607 76.7951
C -50.5116 -331.2257 330.9596
F 23.0278 -185.7034 385.3810
F 145.6169 281.8002 -178.2196
C -55.8679 77.3051 -509.9691
N -199.0519 -123.4637 -437.4538
C -201.2069 341.1927 -159.3261
C -566.9330 350.1306 197.2461
N -300.3813 -22.0120 200.1736
F 278.3784 -24.0261 -11.4013
N 554.1997 -224.0933 214.6969
F 565.3916 494.3951 234.5554
C 602.6340 360.8846 155.2987
F -277.2898 -307.5777 -442.1739
16

F -16.8063 -58.4539 -8.1435
N -7.7710 -30.9521 -1.7051
C 1.7080 -7.3870 -2.4901
N 8.6652 18.2447 -3.8018
C 8.0780 33.4539 -5.5543
O 9.9475 37.0594 -4.2199
N 3.4407 29.1825 0.6218
C -10.8367 22.7628 13.5313
C -18.0052 6.7351 11.2243
N -22.4270 -64.4605 -13.9764
F -16.3442 -59.7400 -0.1595
C -26.1377 -54.6980 -1.4451
H 6.0937 2.5854 10.6305
H 30.8765 31.9734 5.9053
N 34.2271 52.9630 1.4691
N 15.2915 40.7313 -1.8867
17

C -222.8995 116.1797 0.9333
O -125.3956 62.0040 -15.3946
C -52.7994 36.1504 0.5488
N 36.9949 -19.4654 -11.5932
O 104.9405 -56.1273 -18.3116
N 131.4111 -96.3585 31.9644
O 145.1838 -77.3098 16.5201
F 79.1225 -52.7609 -32.1269
C 8.6308 19.8827 4.2825
H -258.7113 84.3144 35.7898
F -248.8094 143.1333 20.3299
H -258.0352 101.7519 -33.8367
C -15.9887 52.7115 20.8626
C 91.3950 -13.4866 3.3255
C 163.5993 -62.6746 5.5072
C 231.6300 -116.3079 -24.9470
H 189.7310 -121.6369 -3.8544
14

N -4.8907 -13.7184 3.3627
C -1.9558 -6.5789 2.4775
N -1.3383 -1.8537 1.9100
O 1.5058 2.7986 1.1297
C 2.2344 6.6198 -2.3773
C 2.1186 9.4497 -6.4887
C 1.5875 8.1496 -5.5878
C 1.7436 6.4349 -2.8471
H -1.5507 -0.8573 -0.6231
H -5.4327 -14.7106 5.9922
H -3.1128 -12.2593 4.8309
H 4.2984 -6.2297 1.8961
H 1.8114 9.6705 -1.1100
H 2.9815 13.0847 -2.5652
14

O -0.3076 -0.2364 -3.5217
C -0.7048 -0.5076 -1.8169
C 0.9208 -0.5915 -0.1731
O 1.3095 -1.8559 2.7279
C -1.2996 -1.5804 5.3211
C -1.0577 0.9869 3.4993
O -0.2567 1.5697 2.1919
C 0.0638 2.5625 -0.6056
H -0.1484 2.3614 -2.0815
H 1.9281 -0.4156 -3.0541
H 1.3643 -1.3023 -3.8550
H 2.4085 -2.0984 -4.6018
H -1.7568 0.2521 2.9727
H -2.4634 0.8556 2.9966
12

C -6.7599 -7.8006 1.4661
C -3.4486 -3.5534 1.6430
C -0.4942 -0.7089 1.8291
N 1.9218 2.2492 0.5098
C 5.2064 5.3487 -0.6309
C 5.8364 7.6732 -1.0834
C 6.4969 8.3800 -3.5191
C 4.0131 7.2502 -1.3302
O 2.8762 6.3396 -2.5302
H -5.8753 -10.0552 -0.2562
H -5.9164 -8.2859 2.3508
H -3.8564 -6.8369 1.5512
23

N -113.4498 56.3891 139.5773
F -42.4025 17.3952 35.3438
O -33.1425 -62.8211 -15.6001
O 73.7144 45.4965 -29.1605
F 15.2568 34.2575 -17.7082
C 54.3216 104.1954 14.1973
F -44.3682 104.4900 -6.7436
O 54.8042 20.2330 -108.2471
H -44.1893 -130.3754 -53.0321
H -112.3203 -53.8038 127.4693
H -38.8591 -187.8684 -56.4873
F 33.1658 -356.5541 -69.7698
H 113.4584 109.2911 -81.7604
O -62.1826 273.5652 -226.3329
C -124.9196 22.4941 -102.6521
C -296.0051 -253.1779 286.1776
F -209.8803 -128.2188 121.6261
O 33.1050 327.0833 49.2681
H 416.0335 381.7271 -278.7287
N 420.6138 89.0445 -302.3004
C -345.7367 254.4978 -126.9647
O 45.4347 -147.8074 109.3129
H 207.5476 -519.5331 592.5153
25

H 203.6731 -185.4304 -453.6241
F 10.3343 -122.1398 -144.4697
N -51.7364 -183.3675 -109.9946
C -24.0569 29.2746 -178.3092
C 74.3155 24.4012 51.6913
H 13.9518 18.7193 29.8970
N 61.3651 85.9883 200.3453
C -197.1474 54.3507 252.9490
F 57.7647 -106.0731 -141.0466
F 377.8313 49.5140 -119.0906
N 61.9243 69.1645 -81.9080
H -176.8637 97.0749 -94.3053
N 78.2868 56.9636 -10.3415
H 510.3098 -173.0580 5.2795
F 80.1743 453.8981 575.1382
O 82.6769 -510.6710 266.0387
O 109.4449 -265.2780 -258.6335
C 158.9727 177.4643 -391.9236
N -646.1040 569.4910 195.5914
F 42.2772 224.3132 206.0788
C 192.5065 -180.8949 231.5390
H 13.0725 -129.0368 -530.0163
H 431.2090 137.2285 -381.1105
C -1384.9286 -206.2501 1077.1206
H -79.2540 14.3531 -196.8952
15

O 17.8587 24.2733 -13.7193
C 12.8474 13.3484 -8.2407
H 5.6266 3.6292 -3.7959
C -2.4799 -4.4141 5.6475
C -9.9627 -15.6110 10.8833
C -14.5807 -15.6375 8.0801
C -13.0483 -9.7828 7.4029
C -5.6735 -7.1750 7.2545
C -0.3514 -2.0699 1.0575
N 18.2583 30.5050 -13.6602
H 13.1014 14.4351 -16.2254
H 14.7543 5.0839 -7.4734
H -7.8508 -3.2036 5.8448
H -9.1585 -17.9483 11.5779
H -19.3408 -15.4325 5.3663
13

N -1.9965 -1.3758 4.1900
C -1.5683 -0.2298 1.8571
C -1.1950 -0.1417 0.3032
C -2.1644 1.4473 -1.6850
N -0.4992 1.1892 -3.2432
O 2.2988 0.1782 -3.7282
C 3.0078 0.5141 -2.4664
C 3.1599 2.4811 -2.6440
C 2.3776 0.5884 -0.8740
H -3.9559 -2.1626 4.9297
H -0.5054 -2.9438 3.0373
H 0.2031 -0.8195 2.5475
H 0.8378 1.2748 -2.2240
23

H -5.1850 6.0769 10.9244
H -32.7036 -2.8440 -26.2072
C -14.6860 -18.2101 -6.7796
O -80.4157 132.4482 23.0477
C -111.4143 175.3058 157.4458
O -120.7362 80.0604 -6.7310
N -7.1473 -108.9938 -93.9489
C 68.4700 -316.5517 -197.6756
C -38.8009 -420.3646 -15.0042
N -97.5805 66.1817 157.3912
N 6.9981 77.7580 235.2024
N -34.2021 103.4654 304.3475
F 255.6970 446.3325 -48.0488
O 418.0266 369.6621 -18.1906
N -24.3153 345.0222 185.6750
N 133.4670 -146.9457 -353.3013
N -163.6940 -219.8381 -382.1468
N 136.3051 -305.7862 -246.0658
H -206.2345 -537.2783 27.6495
O -162.7491 13.5253 -313.9064
F 847.5488 -115.4324 -52.6845
H -74.6059 462.7569 36.1190
H -692.0422 -86.3507 622.8883
19

O 70.7208 -60.1809 -59.2722
C 43.3899 -38.2066 -38.9231
C 37.5970 -27.6745 -33.6754
N 22.5084 -10.9684 -11.5786
C -7.3505 13.9290 17.5523
N -40.6607 33.0033 36.6649
C -62.5929 44.6781 47.5154
C -62.2025 42.5062 38.6764
C -38.9959 22.6729 14.6303
O 77.1138 -66.3147 -65.6191
F 83.7916 -65.8555 -67.3763
N 82.7669 -66.3557 -63.9958
N 60.3385 -33.7836 -42.2792
C 42.3021 -20.4768 -13.2116
N 10.0554 4.9317 15.9053
C -37.0744 39.2849 47.5590
N -82.2941 64.6157 65.0661
C -106.8017 69.3797 69.0972
O -92.6118 54.8153 43.2644
24

F -58.6591 -53.2893 333.3235
F 73.4506 -49.9054 238.7824
H 125.7894 101.9702 210.0888
H 95.2314 -35.2715 -194.8673
H 232.9726 7.2386 -234.5269
N -32.6871 -13.7989 -157.2461
N -238.8972 -141.9114 30.0737
F -295.6158 -98.0808 -56.7978
O -113.3289 -136.1016 -8.9994
N 59.5576 -78.8738 -165.6313
C -131.8424 -245.3269 29.9485
F 121.0845 -191.3057 230.3177
H 74.9578 297.6779 138.3557
C -108.8589 178.2171 -139.4124
O 279.8321 343.7161 -506.9642
C 300.9656 887.1070 150.2499
N -133.6245 90.8992 386.5685
O -407.1586 -1080.9783 39.6739
N 297.4279 -738.6999 -294.8477
C 417.6532 73.8004 131.2830
H -509.3279 130.1582 101.7517
N -550.7703 570.5370 276.8862
O 15.4916 120.7240 -426.1050
O 486.3564 61.4979 -111.9053
20

F 67.4824 15.4522 -47.7683
F 54.4032 13.8621 -43.4920
F 38.7776 2.2744 -72.3678
C 25.3593 0.4733 -66.0636
H -14.8941 -21.8389 -56.5845
F -40.2625 -13.1036 23.3656
F -61.4745 -6.5862 83.7879
F -71.0255 6.0159 111.1888
C -53.9834 15.8627 98.3138
O 72.8165 14.3926 -37.7536
C 94.7408 21.0088 -72.8694
O 106.9080 22.4293 -81.5259
H 74.3473 10.0333 -131.8518
N 45.0495 -25.5222 -154.7361
O -5.6493 -49.6487 -151.0212
H -66.8589 -63.3131 -65.7513
O -122.7971 -47.0636 56.2862
N -122.1556 -8.4472 203.9936
N -95.9068 30.5604 275.4673
C 75.1231 83.1586 129.3823
17

O 28.9135 21.8942 21.1953
C 18.3307 9.9291 11.7853
O 11.5588 3.0362 5.5084
N -0.2611 -2.9691 1.0017
O -11.7728 -7.6037 -8.7989
C -15.3076 -9.9840 -11.6882
C -17.5583 -10.1961 -11.6275
C -14.7967 -6.6429 -8.0476
C -9.8497 -2.1322 -0.7316
H 25.5841 24.8595 26.2302
F 30.5892 20.8603 22.4571
H 26.4738 15.9770 16.7576
H 13.7096 -0.6953 2.6396
H -3.1605 -16.1598 -5.1391
N -21.8743 -16.6007 -19.1943
C -29.6338 -16.2359 -22.4796
H -30.9448 -7.3366 -19.8683
16

F 14.8711 -40.5394 117.9451
C 13.4354 -19.4962 57.1509
C -0.3144 -11.3831 22.1935
O 1.2626 -8.0877 -11.2737
C -13.9702 -4.4294 -63.3937
H -10.8458 29.7282 -96.4992
N -26.3941 32.7217 -82.7683
C -7.5227 26.9629 -38.7150
C -8.5263 6.7436 13.5286
O 6.0693 -41.9977 134.0368
H 42.8006 -41.8156 117.4770
H 0.3345 -34.5527 101.1237
F -5.8087 1.5255 -6.5277
O -14.9057 33.9029 -73.4155
O 15.6657 48.6440 -108.9012
N -6.1513 22.0730 -81.9614
21

F 54.6605 -66.8432 28.8812
C 9.0290 -30.2427 9.6396
H -103.2775 -84.4527 25.4982
F -196.2475 -86.9812 -16.3545
F -247.2282 -84.4476 -18.2946
C -165.8367 -47.0721 36.2103
F -2.9857 28.9764 -24.2618
F 272.7957 180.0073 -20.5417
H 491.0694 282.8078 -72.9110
C 44.7813 -92.6513 55.2521
C -70.9763 -133.9666 64.9660
N -195.1211 -189.2821 90.2379
F -299.7611 -112.7383 18.2985
N -271.2491 -86.3698 -78.7830
N -263.4962 -66.6854 -141.8473
C -100.0629 69.8710 -282.5134
O 36.5041 282.1887 -174.3004
N 80.7792 240.0829 141.6492
C 203.6128 87.2744 319.1006
F -57.8440 -580.7570 298.1947
O 780.8544 491.2816 -258.1208
19

F -360.6135 97.3826 -116.3612
F -228.2261 61.0865 -60.5723
F -166.4496 50.9718 -8.1004
N -43.4379 29.2969 41.3160
H 99.5627 -8.7708 70.0008
N 212.8370 -39.3870 71.0375
F 268.7072 -74.2852 30.5617
F 229.1713 -82.8701 -1.8045
F 120.4696 -56.8971 -47.1585
O -391.0525 110.3917 -122.1010
F -406.6493 103.3886 -98.1140
H -386.8848 105.8005 -66.1313
F -208.6792 71.4069 45.9789
O -100.3343 48.8425 105.8998
O 55.1286 10.9482 118.7404
N 231.2565 -51.1546 120.2954
N 360.4006 -126.1998 44.5751
N 405.0527 -152.7965 -25.8885
F 309.7409 -97.1551 -102.1739
23

H -106.6277 297.5682 193.5956
C -90.3822 57.9885 20.0793
F -62.8362 -150.6311 -53.7684
C -142.1123 -268.1092 -66.0028
C -91.4946 -245.1289 -140.5367
H -123.5261 -61.6385 -134.0183
F 16.3882 76.6977 2.0967
C 269.7083 212.9212 -40.7741
C 260.1881 110.4420 230.2262
C -86.0210 359.6783 376.7972
O -196.4023 -125.9299 217.4690
O -476.2274 -361.5790 -135.2892
F 188.7901 -245.2417 -249.1863
H 608.0505 -243.5004 77.1198
H 126.0675 22.4134 61.4956
F 207.5005 75.4576 -187.3123
O -86.0695 392.8118 -366.4478
N 247.6265 110.1098 -661.5430
N -36.6233 605.1504 146.3324
F -544.1587 -204.9597 -596.6931
O 217.0444 400.6240 253.1639
H -150.8653 -308.6905 359.8600
H 51.9827 -506.4539 693.3362
19

F 2.3588 -57.7898 -152.9198
C -1.6908 -39.8965 -97.7789
F -10.3507 -38.2589 -81.2009
F -14.7231 -24.9440 -41.9966
O -17.8753 -1.5337 24.7877
H -10.4131 29.7049 89.5323
F 1.0831 53.1866 119.5292
N 19.1689 62.6545 117.7998
O 32.0859 47.8670 76.5979
C 6.5268 -60.6988 -157.0785
N -7.1869 -67.8620 -169.8361
H -16.6940 -72.2116 -162.8439
F -30.1020 -54.9556 -125.7594
H -26.5594 -60.4015 -98.2468
N -22.0231 -36.6603 -17.8289
C -4.2367 18.3861 84.8460
O 7.9836 71.6402 180.4377
H 39.3303 122.8511 226.9114
O 53.3176 108.9223 185.0476
14

F 15.4240 8.5797 15.9726
C 5.4326 3.5028 9.6984
C -0.3115 -1.0778 2.3254
C -2.1394 -3.1999 -8.3351
C -8.3955 -5.1914 -8.6232
O -8.8331 -6.3666 -11.5657
C -15.0651 -9.5838 -15.9078
N -11.5133 -0.9657 -10.8896
H 6.1983 2.8094 4.9626
O 22.1248 9.9578 21.5192
H 14.0915 6.1646 13.6075
H 4.1080 1.1444 6.7695
H -8.7996 -0.3192 -2.8207
H -12.3215 -5.4543 -16.7131
19

N 25.6044 -35.9127 -58.9048
N 16.8909 -19.7163 -35.9686
F 3.5994 -12.3305 -0.3202
O 4.7049 -0.8681 21.1848
H -8.7733 13.1970 44.1643
C -17.2823 17.7261 39.6679
F -11.2943 22.0517 15.5496
O -11.3987 12.1911 -12.1625
F 3.0059 7.9638 -40.4057
F 25.5804 -33.9843 -60.5934
N 19.5610 -35.8910 -47.7880
H 17.5330 -31.4802 -31.0385
F 8.4122 -12.3748 27.4671
O -6.1400 -1.0012 69.4632
O -15.3353 10.1350 84.0012
O -29.3265 24.8930 73.6866
O -23.8318 34.9934 23.1959
N -11.7636 26.8964 -21.2379
F 10.2538 13.5115 -89.9609
17

F -50.0157 -23.5754 -104.4402
C -34.6493 -14.2793 -61.6509
F -12.8826 -5.2961 -28.8125
N 5.9281 4.6355 25.7654
F 23.8438 10.8117 48.1477
C 36.0634 19.5539 63.0182
F 32.9697 7.5382 54.7684
F 15.7920 -5.1501 28.8326
C 3.5492 -12.4311 -15.4890
O -63.8078 -22.0390 -98.6398
F -62.9647 -11.3056 -98.2878
N -60.3999 -9.4132 -93.6004
N 7.6710 20.9619 -12.6313
F 29.4745 26.1189 49.0784
O 45.4122 9.0463 77.8978
O 48.6020 4.7058 95.4013
C 35.4141 0.1175 70.6418
10

O -0.8351 0.6180 -1.5532
C -0.6041 0.9149 -1.0799
C 0.4441 0.3673 -0.8269
O 0.9555 -0.1772 0.9859
C -0.1679 0.2590 1.1965
O -0.6673 0.0197 1.3292
C 0.2331 -1.2854 0.5016
O -0.3632 -1.0557 1.6488
O 1.0837 -0.1198 1.0212
H -0.0789 0.4592 -3.2232
21

F 91.6873 43.2801 -113.8189
C 50.8208 30.2380 -61.2530
F 78.9843 68.9504 -41.0977
O 67.7717 84.0449 -26.2749
H 33.2561 79.0406 -17.2515
O -36.2532 40.6735 2.3267
F -95.7199 -45.6685 29.4436
F -146.2320 -147.5716 86.8187
C -146.0407 -215.4440 100.6353
O 99.1322 52.3551 -137.6189
F 135.1996 78.1248 -85.7719
O 151.1631 101.8740 -39.0816
H 164.7922 122.5503 64.2880
O 120.1395 113.8515 67.7724
O 46.8828 70.4604 -23.6816
O -38.3173 65.9189 -138.4999
N -88.5390 35.0785 -264.5277
H -103.1874 -23.3512 -265.3953
F -133.6593 -91.6168 -90.9002
O -94.4688 -50.9577 483.1011
H -157.4121 -411.8312 470.7873
20

F 30.2381 -88.6298 -124.5300
N 25.4397 -51.3711 -77.4703
F -15.2872 -49.4411 16.9949
N -4.7399 -30.8717 45.5991
H -40.0449 -9.3572 87.0567
H -30.4398 31.5530 71.0706
F 10.1650 74.5162 20.1960
C 20.8608 87.3474 -17.2945
H 23.4993 77.1235 -92.0017
N 28.3405 -88.1809 -127.6435
N 44.1773 -93.0698 -62.8703
C 46.0719 -71.0550 -1.8727
O 11.0066 -68.0660 128.7000
N -82.5272 -84.6821 162.9075
O -144.6265 -89.5378 118.2514
O -203.0534 -25.5626 24.1847
O -175.9711 92.7603 -104.8184
N -9.7052 142.0625 -121.9723
H 171.6929 184.6429 -185.3366
C 294.9030 59.8190 240.8493
16

O -32.1014 -23.0452 -30.4856
C -19.5046 -10.9549 -17.0733
H -3.1667 -4.4028 -6.5497
N 8.8641 3.8503 1.6228
C 14.6749 12.3779 10.2339
N 21.0159 14.3041 14.4285
O 17.1508 10.6742 15.4011
F 8.2216 5.6035 10.0893
O -1.7025 -0.0010 1.4778
O -37.0033 -20.8189 -25.4892
F -32.2755 -21.0805 -21.8526
H -30.0903 -12.6821 -18.5731
H 0.0948 1.7067 4.4266
O 26.0171 11.2975 21.2065
N 32.4793 16.9695 20.9999
O 27.3259 16.2017 20.1370
16

F 78.7748 98.8173 -24.6753
F 50.6615 58.5691 -11.0337
H 13.9617 21.8076 -0.9771
C -20.9053 -10.9079 -7.5521
O -67.8413 -52.6945 5.7717
N -60.3236 -68.9304 -6.1474
N -43.9792 -61.2673 7.5050
N -24.2091 -34.0721 15.1240
N -10.2538 -5.4188 6.9271
F 95.4656 93.3739 -15.8381
H 86.9267 89.0762 -3.2562
N 75.6315 71.5807 2.6074
H -8.9766 25.8509 7.3209
N -25.3713 -47.8129 0.0613
H -71.3931 -85.0398 17.4405
N -68.1685 -92.9320 6.7219
15

N -15.0945 -0.9404 2.8862
C -7.6671 0.2440 0.4208
N -2.0126 -0.0010 -1.0169
N 2.6561 -0.1590 -1.5882
C 6.6078 -0.2793 -1.2701
C 8.8465 0.9174 -0.6510
C 6.3570 -0.1882 -0.8366
C 3.5404 -0.0994 -2.4799
C -0.5898 -0.5660 -2.9383
H -18.4456 -1.5735 5.7329
H -15.4000 -4.1641 3.9365
H -8.8717 -2.1466 -0.3095
H 6.3473 6.1409 -2.3340
H 19.6963 4.9048 1.9192
H 14.0299 -2.0894 -1.4711
16

F 5.9950 -73.5145 -147.8078
N -1.7640 -37.6032 -82.0531
C 12.1180 -10.3565 -29.7997
N 32.9216 12.7000 19.4803
C 4.0326 48.9068 59.4065
N -8.1101 56.7366 76.4136
F -20.0688 30.3575 65.8845
F -38.7364 8.0069 72.5313
F -22.0218 1.6911 24.4959
F -8.2204 -63.3556 -153.9029
F -1.4814 -71.1082 -121.1689
H -28.5774 -53.4174 -81.1441
H 4.6364 5.1235 19.2277
O 46.3404 38.7936 80.8359
O 36.4488 46.7110 103.1716
O -13.5125 60.3286 94.4292
22

F -10.9481 258.4579 492.4439
H 45.4057 107.8916 213.9451
N -45.9264 40.5002 54.5677
C -138.9214 -98.0839 -218.9117
C -136.1681 -51.0166 -317.9170
H 4.2925 -47.4452 -291.3233
C 70.8668 -56.4739 -188.1708
F 159.7971 -34.4908 -64.7425
C 66.1656 -152.5495 153.6698
O 0.2661 198.7348 538.2723
N 9.9359 43.7593 442.9041
O -87.7345 24.7013 228.5295
C -149.8655 -15.0151 -274.7880
O -252.2327 -107.7037 -298.6552
C -406.3484 -50.2821 -418.7940
N -145.9026 22.5822 -130.4843
O 117.4137 -38.2413 197.3886
C 430.8661 -243.4920 125.1849
F 434.5919 -119.0267 558.7086
H -68.7384 269.9891 -424.1039
O -367.0375 -264.4434 -198.4806
H 470.2223 311.6477 -179.2432
17

C 59.7207 2.0300 -23.2592
H 36.1163 0.1811 -14.0445
C 17.1923 -0.1892 -4.5126
O -9.0297 -1.1085 -5.4285
F -31.5910 -2.4007 5.6519
N -42.2298 0.0292 11.7065
C -35.0696 1.2321 14.7540
F -24.7339 3.0802 4.5127
H 5.9525 5.6163 4.4508
F 65.5069 -6.6951 -21.1267
F 66.8792 3.9690 -24.2630
N 50.5044 -1.6821 -19.6266
H 11.2502 3.4837 -9.2233
C -21.9989 1.9451 6.4825
C -49.7490 -7.7480 24.6122
N -56.2313 -5.1666 27.2187
F -42.4895 3.4235 22.0950
16

O -127.7160 -54.3660 40.9380
F -65.7215 -25.8048 38.8448
H -33.1129 -7.4423 25.2913
O 33.0078 15.4490 -6.7784
C 57.2362 31.4216 -22.8776
N 86.1190 58.4827 -46.0726
N 72.5298 27.5930 -45.9454
C 39.9262 10.8506 -18.6151
H -11.8635 -25.6100 -18.0366
F -136.8043 -61.2689 42.9485
F -120.3261 -66.5180 36.3611
N -109.4945 -64.3666 34.2595
H -6.7962 25.1614 -24.7153
O 96.1867 45.9110 -0.8138
O 119.9548 56.2909 -6.5727
N 106.8745 34.2163 -28.2156
23

F 118.9122 90.2830 145.9951
F 39.9728 -20.7960 67.9551
O 152.7190 -112.2666 -47.0878
F 152.2673 -187.2442 -329.5903
C 121.6048 -230.1009 -177.2213
H 12.8041 -209.5349 -62.5304
H -3.9420 -4.1362 166.0402
C -218.3168 169.6369 28.4292
C -122.9565 396.9732 169.1120
O 30.0279 116.8359 254.1464
N -83.6322 -88.8048 75.3068
C -290.8833 -365.5694 -346.5640
F 100.7360 -340.1929 -254.6875
N 268.7573 -239.4028 71.4292
N 179.8253 -406.5840 -294.0871
F 192.6350 76.6066 -120.0982
C 115.0726 513.8469 194.1171
N 239.3669 72.7591 -108.6222
O 131.7466 -132.3383 362.7854
F -164.8861 -135.0254 -24.2326
C 147.8273 476.4744 -131.7147
H -525.9815 150.7178 4.0628
H -593.6768 407.8624 357.0570
16

C 74.8267 36.5581 -37.6488
N 38.5451 24.4681 -18.5389
H 2.0184 19.3740 -4.9261
F -13.1075 3.4521 1.9173
H -58.9805 -20.5635 8.5034
N -54.8261 -28.8452 2.8143
N -16.5741 -23.6552 10.9162
F -15.5195 -24.0399 13.1861
H 7.3565 -3.2622 -7.1304
F 97.9524 33.2114 -37.1245
H 90.6376 45.7058 -22.9426
N 63.9811 28.2904 -24.2766
H -5.0228 25.9523 12.3990
N -39.7081 -8.4862 6.0519
H -83.1226 -47.6659 50.9512
C -88.4566 -60.4942 45.8484
15

N 19.1648 9.4719 22.4079
C 8.7963 4.1583 11.6222
C 1.5521 -0.4381 3.5199
C -3.5683 -1.4092 -4.7866
C -8.8811 -3.9880 -9.0160
C -12.9138 -6.7378 -11.8807
C -12.1473 -3.8915 -13.4507
F -7.6433 -4.9810 -10.2406
H 0.2914 -0.1143 1.0553
O 18.3374 14.4587 23.1219
F 17.5037 6.9112 18.6257
H 13.5650 9.1523 13.4190
H -10.0740 -4.2716 -6.9842
H -10.1284 -7.3112 -16.6397
H -13.8548 -11.0097 -20.7734
23

H 123.1978 67.5174 168.6353
N 156.7433 139.9701 92.2564
F 41.3168 164.0263 -76.7833
C -195.4568 92.9365 -383.9277
C -129.2794 3.4969 -177.3383
H -261.2177 -61.0323 -157.7172
F 93.8963 -202.9444 95.8099
N 128.9881 -197.1626 -87.6585
H 36.1663 -99.2998 260.2062
O 118.7868 113.9381 312.2343
O 107.5367 -59.7674 233.9051
F -22.0507 1.7263 -148.9972
O 14.9196 193.8983 -171.1355
C -216.5357 -7.4949 141.9149
F -336.8010 -242.8438 -232.6572
F -36.2935 363.5169 208.4858
F 12.8990 448.9581 256.5324
N 156.8011 -25.7221 -178.5658
O -18.8726 585.2306 142.8416
C 285.7125 221.4167 35.5921
C 194.1059 -865.8860 -437.3897
H 234.0262 -773.5443 -265.0510
H -488.5891 139.0654 368.8072
18

F -148.8295 -156.6531 85.7301
F -85.0780 -89.9099 51.3790
H -64.8641 -64.2732 34.3022
C -7.2268 -5.7142 4.2080
O 64.9195 50.0374 -29.0328
H 98.0045 100.0492 -41.9967
F 98.0808 109.2288 -53.9068
O 77.3471 72.6006 -56.3433
H 19.2706 10.7905 -18.3917
F -157.3617 -167.4336 97.3773
N -169.1327 -158.0631 89.3442
N -158.0938 -140.0557 90.0113
N -60.8677 -47.7647 25.0209
O 7.0758 18.7305 3.9730
N 79.7386 80.0806 -43.1339
F 133.8202 115.1063 -82.0815
N 141.7225 144.9741 -100.8702
C 131.4744 128.2695 -55.5893
17

N 1.5642 12.6083 20.9834
C 0.1608 7.2649 12.0186
C 1.0325 4.2124 4.2601
C 1.2178 -2.1618 -3.2685
O 0.0526 -6.6964 -9.6902
C -0.2883 -8.8296 -13.6669
C 0.1674 -7.5587 -13.0839
N -1.0415 -5.7055 -7.3815
H 0.3099 4.4379 3.5670
H 1.1939 14.3150 24.2228
H 0.6386 12.6260 19.7932
H 0.0693 9.8671 19.1176
H -1.5128 2.6656 2.9021
H -2.0806 -2.2142 -10.7724
H 2.3281 -8.3347 -16.2652
H -1.1611 -13.4779 -19.1373
H -2.6507 -13.0185 -13.5990
12

O -0.8982 -0.5100 -1.2068
C -1.0349 0.4984 -0.2996
C -0.8165 0.9659 0.7382
C -0.2169 0.0950 2.2351
C -0.4657 0.3870 1.1265
N -0.1638 0.8617 1.6375
N -0.1347 0.3503 0.8246
C 0.9309 -1.1139 0.5876
C 0.8427 0.4014 -1.1207
H 1.6553 -0.2832 -2.0807
H 0.1238 -0.5110 -1.4107
H 0.1777 -1.1417 -1.0309
16

C -8.6254 -11.4261 8.6282
C -4.7277 -6.1761 5.5480
C -1.7889 -1.2203 2.5123
O 1.2970 1.6479 -0.5901
C 4.6059 3.5236 -3.5559
O 5.4229 7.0153 -5.4517
C 4.6986 8.3532 -4.8770
N 3.0079 4.5244 -2.9462
O -0.1074 0.3750 -1.8925
H -10.2463 -12.3651 8.6863
H -11.2828 -10.9011 9.1195
H -5.7009 -10.2108 7.7283
H 1.5468 0.4470 0.3413
H 7.4340 5.3740 -6.3410
H 8.0247 12.1943 -9.9705
H 6.4417 8.8448 -6.9390
16

F 3.0937 27.2481 26.3345
O 3.0397 16.1371 15.5285
O 1.1240 7.0652 2.6548
C -0.3747 -5.2048 -6.9452
O -3.2175 -16.7014 -10.7282
N -2.1289 -15.6372 -18.8923
F 1.2323 -17.5520 -16.5902
N -2.3815 -8.9660 -8.3781
C -2.5590 -0.4691 3.1104
N 1.0827 28.3680 31.2528
H 4.7293 26.3963 27.4474
O -0.8890 21.9035 27.1385
H -2.0023 2.3887 3.2947
H 2.2052 -17.1821 -18.1171
H -2.1166 -25.6956 -28.5053
H -0.8375 -22.0986 -28.6052
23

O -15.6555 -224.1079 36.4792
F -10.3775 -111.0014 -99.4918
N -31.2515 -90.4951 -134.9709
C -100.6454 -53.1591 -127.1809
F -88.0163 -37.0710 -18.5128
F -120.3987 -40.8048 26.1508
F 58.2756 -14.3741 137.1133
H 64.8925 122.2185 73.4369
C -223.4259 228.6044 26.8099
C -55.3300 -198.0793 37.2607
N 175.5663 -236.0581 -103.5866
H 179.8451 -1.2763 -231.8900
C 108.2812 325.5192 -316.7831
N 63.9160 -127.5509 45.0604
F -90.2679 -328.6971 258.9739
F 75.7758 -187.3697 297.9704
C -13.2187 -77.0213 144.3580
C 10.2965 -93.6479 -317.3639
O 78.7431 414.4182 -219.5425
N -29.0003 184.8617 -264.8370
F -443.5478 -47.6180 298.6943
H 616.9308 289.2614 689.6567
C -211.3875 303.4485 -237.8050
21

F 325.4792 -23.9205 -190.8832
F 201.4011 -16.6382 -103.2906
H 37.8031 16.6671 -34.7766
N -160.2871 62.0287 14.7483
H -330.6229 72.6488 85.2684
O -336.1073 37.9967 154.2249
C -179.4339 4.9703 81.0173
C 90.5250 -53.0280 16.8272
H 373.4728 -126.3441 -54.5528
F 365.4105 -62.2277 -188.6326
F 314.3465 9.2834 -202.1317
N 174.8683 74.1696 -179.8478
H -59.1763 70.9541 -43.4226
N -286.6079 -5.5347 114.7112
C -435.7705 -49.5579 176.0242
C -441.8490 40.5886 223.3971
N -268.5725 119.9932 129.6970
N -81.0957 203.3364 177.9480
H 197.3667 220.9872 -21.5584
N -46.9741 -158.1444 -64.4016
H 545.8242 -438.2286 -90.3657
18

O -25.2085 6.0999 -41.7822
C -14.2486 4.4266 -27.0008
C -5.3796 2.1866 -17.7555
N 6.6052 0.5933 -1.3823
C 14.3991 -0.2421 15.1391
C 12.7858 -2.7534 27.4406
C 11.4436 -1.7082 29.5813
F 2.0556 -4.7313 21.9563
O -6.6338 -3.6972 7.3369
O -25.3879 2.5678 -42.3378
F -17.4737 9.3681 -44.7421
O -17.1992 7.4699 -40.0903
C 1.3199 -0.5223 -19.6857
O 11.1962 -8.0976 -7.0830
O 15.3994 -0.7571 17.8477
H 15.3906 -5.2776 38.8883
H 13.8475 -4.1062 42.2218
O 7.0884 -0.8193 41.4479
14

N 6.9202 28.7737 -10.0292
C 6.3520 14.6505 -6.0829
N 3.0273 3.5236 -2.3608
O 2.3567 -8.6820 7.4507
C -5.1183 -19.1129 10.5658
O -6.7702 -17.3179 4.3156
C -8.9405 -14.0883 4.8341
C -6.8626 -11.9031 9.4082
C -0.1827 -9.7264 5.4851
F 0.8652 34.8476 -12.5075
H 1.4798 19.0395 -11.3883
H 5.3898 10.7636 -9.2143
H 4.3632 -10.2025 2.2489
H -2.8800 -20.5655 7.2745
23

H -51.3223 -36.5221 115.6001
N -83.2741 -41.7727 56.4878
C -0.1887 -64.0985 28.0937
F 126.2573 -2.6162 -393.1741
F 324.1274 -2.1133 -233.8590
O 198.8280 15.4979 -127.9516
F 79.0927 168.9493 165.6373
C -192.5740 54.3976 144.0733
F -307.4257 -149.9724 208.7710
N 34.0534 131.1616 211.5706
C -176.1470 -88.0536 18.9630
N -223.1989 -380.0855 -300.4666
H 86.1124 -228.9979 -6.6192
C 347.9838 69.2191 258.1754
F 515.7201 254.6904 -17.8103
C 294.1833 235.7410 508.3016
N 127.2710 -91.3102 148.2185
O 0.9729 -521.8118 -538.0984
N -722.8967 123.4611 -197.5027
N 8.3344 767.9015 -197.8258
O -204.4095 85.7533 595.6772
H 24.0912 4.5607 -83.2112
H -205.5910 -303.9789 -363.0507
19

C -35.5789 3.2415 -56.2697
N -18.5227 -0.4527 -25.6482
H -50.3899 -0.8605 17.6384
N -65.1111 -5.5266 31.9402
H -52.8209 -12.1472 19.0150
F -5.9644 -18.4030 31.8527
F 53.1422 -7.4246 5.7353
F 119.0926 0.9177 -29.1262
H 96.3831 17.8489 -33.7496
F -32.1789 4.8164 -57.3098
F -52.1976 23.7464 -49.8258
N -65.4168 7.4888 -10.0592
H -88.5458 -6.0677 44.4560
O -124.5764 -17.7435 69.3170
C -104.9574 -74.4071 97.3356
F -52.4449 -31.1965 76.7740
H 57.8828 -5.3657 -9.9700
N 180.4007 46.5217 -27.8278
H 241.8043 75.0138 -94.2779
17

O -1.3402 -19.5344 -89.3554
C -0.6724 -11.1329 -49.6949
C -0.2301 -4.4154 -24.7774
C 3.1661 3.2930 16.9223
F -0.9583 5.6270 43.3051
N -2.6542 10.5695 53.5637
F -1.5089 12.4538 46.1627
N -0.7430 -0.4478 22.1478
C 3.8202 -2.2634 -5.2380
O -2.3514 -7.5698 -89.7246
F -8.5510 -19.0941 -78.9778
N -10.9686 -18.5017 -74.0354
H 4.4418 -3.0353 -14.9729
O -0.3087 6.3663 33.1534
O 10.6542 13.0036 67.1990
O 4.1392 16.6853 83.7132
N 4.0654 17.9964 60.6091
19

O -79.6112 11.8469 -234.2529
N -50.7877 16.1284 -143.9888
F -43.5360 8.4682 -57.2867
O 0.6268 26.1609 22.1820
H 17.2661 4.8451 118.3798
H 41.2362 -3.2351 159.2751
O 74.6853 -8.2257 117.4150
O 61.5675 -27.6186 55.1371
H 42.5455 -9.4017 -47.8698
O -94.9879 11.3104 -248.7617
F -99.4041 14.2471 -233.0631
C -106.3568 13.6718 -198.6270
H -40.1018 14.5874 -10.1823
O -21.0558 26.6701 129.2025
O -5.0108 23.7984 192.0665
O 27.7855 3.0843 247.9769
O 60.1239 -22.5543 168.5472
N 102.2759 -59.7716 62.5936
F 112.7394 -44.0120 -98.7435
14

C 1.6668 -6.5034 -8.5593
C 0.2566 -2.9458 -4.3235
N 0.7430 -0.2722 -0.6124
C 1.8728 2.6990 3.5200
C -0.7951 5.3639 6.9045
N -3.1817 5.8894 6.9985
O -4.3872 3.1438 6.5340
C -0.6446 1.6724 3.3370
N 3.2578 0.3938 0.5769
H 2.4444 -7.7977 -9.0228
H 1.2834 -4.5458 -7.6677
H 1.1612 -2.1403 -7.3852
H -1.8840 2.4427 3.3914
H -1.7933 2.6002 6.3086
12

C -3.3291 -9.4838 -2.5040
C -0.8023 -5.1931 -1.9059
C 1.0443 -2.2060 -0.5568
O 4.0314 2.4146 1.2872
O 3.3259 8.0012 1.4628
N 1.2117 10.3114 2.4471
O 0.8561 9.9285 1.8581
C 0.4219 7.6299 2.5088
N -0.3433 6.8505 2.1772
H -1.9531 -9.5534 -2.2307
H -2.3228 -11.1090 -1.9537
H -2.1406 -7.5909 -2.5901
21

H 313.5114 -110.4884 88.2372
O 181.0095 -68.1676 53.9806
H 86.2865 -37.9573 58.5646
F -29.3333 -2.9686 30.3602
H -159.9749 55.6214 11.6685
C -218.7807 75.7975 -5.9416
C -208.5730 75.2080 -94.0892
F -85.2126 51.1798 -105.9332
H 87.9432 -9.5920 -82.6626
H 341.9865 -134.1142 104.5757
C 291.7992 -108.9594 88.5020
N 199.3252 -85.4252 75.0211
F 31.2898 -29.5790 47.9201
C -44.3405 -22.6101 79.0502
C -123.5282 5.1376 88.0766
O -131.9916 91.5647 63.2920
F -111.4564 163.8364 1.5847
N -134.3214 186.0639 -39.5091
H -123.3755 159.1631 -130.8773
O -311.1832 -126.3849 -217.6729
H 148.9200 -127.3256 -114.1477
17

F -8.1608 70.5202 19.7002
O 1.7884 43.9200 11.7169
C 3.3909 17.3577 9.4718
N 7.8880 -3.0554 -3.7236
O 8.7150 -31.4019 -10.7200
H 2.9990 -48.1011 -6.3769
F 1.6010 -38.1728 -12.6726
F -4.2368 -27.2683 -17.3856
C -9.4501 -5.8574 -1.9910
F -11.0110 75.8814 33.8572
C -9.9940 71.9524 27.2513
H -9.7962 55.2168 17.9273
H -5.7614 22.1272 19.4243
O 9.1686 -37.4697 -10.5497
O 0.7329 -45.0431 -22.0214
N 17.0252 -66.2933 -28.2176
O 5.1015 -54.3128 -25.6907
19

C -246.6852 317.2524 70.3861
F -144.4778 197.9235 48.8076
H -86.3866 147.7828 28.4662
C 3.8017 68.6181 -15.3587
O 89.4193 -65.1720 -35.5875
O 141.9093 -166.2690 -50.6105
F 151.0024 -233.7960 -53.5153
O 103.4906 -238.1548 -36.4455
O 4.7975 -147.2699 16.9537
F -256.1905 338.5475 93.0753
C -247.4120 344.1420 85.2213
F -204.2180 319.0479 83.0714
F -56.4581 215.8803 1.9666
N 33.3712 144.6047 -14.5271
N 122.3131 12.2385 -66.0194
O 193.0511 -178.1394 -61.5377
C 183.1100 -324.3583 -89.8048
C 166.2021 -410.3726 -24.1740
H 49.3600 -342.5058 19.6324
17

F 213.3026 -39.1711 165.6574
C 108.1127 -36.8621 76.9450
N 70.6780 -9.1447 50.1841
N 0.7321 -8.5838 -20.2650
F -95.5673 -0.5327 -101.6528
N -117.7286 35.9211 -98.2041
O -152.3874 29.6122 -95.0943
F -112.1401 42.1934 -75.7120
C 1.1414 40.6493 11.0944
F 210.2895 -75.2967 197.0410
C 220.5247 -49.9080 174.3929
N 161.8712 -22.7518 149.9621
N 44.3285 -28.8113 -2.5659
C -45.7015 -7.1538 -65.7748
C -120.7402 17.1045 -110.0347
N -167.7709 43.4696 -156.9821
H -218.9448 69.2659 -98.9910
15

N 1.9873 0.1814 22.0112
C 2.2446 0.2027 11.3381
O 0.9444 -0.3121 2.0177
C 0.0651 1.2835 -7.1021
C -1.3660 1.9872 -14.6644
O -2.6430 1.6928 -16.6958
N -2.8928 0.5485 -13.4766
C 1.4170 -0.7400 -5.6895
C 4.6307 -1.6229 3.4803
H 2.9628 -1.6568 24.5177
H 1.2083 -3.5488 18.4216
H -0.3722 -0.5906 18.1661
H -2.1453 -1.7820 -7.0770
H -4.5066 0.3667 -16.7928
H -1.5342 3.9902 -18.4546
22

H -162.0395 4.2124 16.0867
F -52.6287 -22.9250 -27.6702
F 12.8019 220.8103 -90.1837
C 135.2551 272.2187 -195.1579
O 194.0940 194.8111 -95.5258
H 94.9330 119.9490 31.3324
C -10.3044 -113.3138 80.0414
N -223.3127 -321.0345 103.1843
H -241.2027 -427.9666 145.3701
H -196.0681 24.3596 -31.0308
H -61.0711 147.1376 -73.3268
C 199.6270 295.9572 -121.3255
H 241.5549 550.1650 -128.7181
H 52.6489 352.5038 -24.5518
C 208.3089 195.0272 -141.9480
F 163.8519 -86.9500 -163.7054
C 84.8892 -219.7853 -257.7030
N -269.3264 -98.6724 100.1959
O -525.9343 -416.1016 432.9370
H 118.9924 343.7326 521.5154
F 299.6071 -730.9587 7.7393
H -64.6763 -283.1769 -87.5554
14

C -13.4891 1.0055 -9.9709
C -6.4927 0.5372 -5.8901
C -2.6772 -0.3922 -2.2672
C 2.7933 -0.3151 3.9698
C 7.4439 0.3278 7.5570
O 10.4576 1.3364 9.3349
O 7.4318 -0.1962 6.9072
O 6.2823 2.3823 4.1783
N 5.0145 1.7137 0.9253
H -13.9616 1.3509 -7.7220
H -11.8438 -0.1757 -8.1801
H -6.1261 -1.8479 -6.8031
H 2.5638 -2.6746 2.3162
H 12.6035 -3.0521 5.6447
18

F 106.6582 65.9623 19.8498
C 63.9501 36.7422 15.8419
C 35.2678 15.3714 10.6556
F -3.7772 -6.8442 3.9253
O -44.7804 -31.7208 -8.4830
C -70.5134 -42.7844 -10.4760
C -78.0251 -36.1432 -16.1996
O -49.7459 -26.0870 -18.9804
H -9.7950 4.7345 -11.0064
C 120.5832 77.2180 20.3372
F 110.6455 64.3779 22.7817
N 105.2994 56.8496 28.5840
F 52.3642 16.4680 11.5043
N 13.3441 -18.0692 3.5013
N -51.3153 -47.2647 -3.3398
C -97.3883 -49.8463 -18.1198
N -117.0654 -47.1820 -29.7205
H -85.7065 -31.7821 -20.6558
17

F 20.5716 -19.1247 39.3582
C 10.7689 -11.9903 22.3859
C 5.9666 -4.0240 12.0087
N -1.1062 1.3396 -0.7846
F -12.9900 9.0987 -23.2942
N -15.9383 9.2527 -27.1078
O -13.8454 8.8727 -22.1497
F -1.0035 2.9292 -15.5315
C -2.0763 3.3250 -3.0650
H 23.0181 -17.7419 42.1021
H 18.8118 -14.2780 38.3310
H 18.2919 -12.6567 35.3672
H 7.5553 -0.6869 13.9020
H -0.7054 8.0854 -10.5984
H -16.3848 11.9647 -26.0529
H -17.9951 11.9363 -37.5655
F -22.9392 13.6981 -37.3057
18

N 82.3722 -296.7057 -174.6405
O 47.4532 -173.7812 -118.4575
N 4.8991 -110.8180 -79.3059
H 18.8091 -22.1841 -6.6586
O -18.6933 126.8678 71.3689
O -52.5634 171.7488 132.5317
N -50.3706 211.8996 120.8739
O -64.7545 151.6916 84.0120
H 19.7694 55.0834 21.8785
F 99.3444 -328.2034 -195.1472
N 68.8833 -333.1646 -200.4887
H 52.2945 -314.9155 -176.5428
H 31.3630 -119.8209 -102.3326
H 5.1391 -7.7976 12.6156
N -37.6519 122.6185 92.3764
O -60.4340 268.7925 161.0572
O -92.6814 315.8279 195.7687
F -53.1779 282.8609 161.0908
16

N 22.3663 -32.4690 -46.1048
N 14.1399 -18.5131 -24.5824
C 7.4300 -6.8412 -7.6531
N 4.7304 4.0066 9.0391
C -11.6587 20.8308 23.6619
O -21.4147 30.7859 28.0875
O -16.8664 25.2775 26.2995
N -16.1500 11.4384 17.5832
N -0.0418 0.3751 3.2626
F 20.7461 -31.8776 -46.2367
H 20.7361 -30.3957 -42.6260
H 9.4886 -25.5717 -29.2631
H 9.4647 0.3561 -0.1110
H 1.0818 16.0624 25.4568
O -19.1813 15.9094 37.3646
N -24.8709 20.6261 25.8219
18

N 30.4345 -25.5375 -8.3930
O 22.4110 -13.6426 -0.5999
C 25.7469 -4.1665 6.4062
C 14.7083 2.6488 8.3871
F -5.4099 13.4003 7.5880
C -23.3805 17.7804 0.2412
O -32.3639 16.0214 -5.6899
F -38.6969 7.5827 -6.2239
H -25.2950 -5.8614 -5.5103
F 31.0347 -22.6420 -5.6299
N 38.2210 -20.1458 3.5287
H 35.8422 -22.4984 7.2538
H 39.8914 -4.8969 13.3833
O 25.8910 13.8268 19.7010
H 1.3821 14.0698 11.2502
O -35.7830 14.9670 -5.9058
N -54.4851 11.3072 -21.7690
N -50.1489 7.7865 -18.0176
13

C 5.5565 0.8073 5.7741
C 2.6537 0.0676 2.9959
C 0.6012 -0.5090 0.1428
N -3.0383 0.3854 -2.1147
C -5.7866 -1.3347 -5.0544
C -7.4997 -1.7963 -5.3473
C -5.2116 -0.7660 -3.2675
C -2.1885 0.7650 -2.8538
H 2.2082 -0.9545 0.7266
H 6.5322 1.6164 5.8498
H 4.8509 2.1170 5.5383
H 3.7800 1.1307 1.1300
H -2.4579 -1.5290 -3.5199
18

F 47.2425 33.1204 24.3525
C 28.2296 19.9663 8.3151
O 20.7988 18.4055 -1.5418
N 5.8599 5.6992 -7.7477
F -18.6405 -11.0898 -12.8326
C -31.6834 -23.3552 -11.9735
C -32.7058 -25.9691 -8.6005
H -25.2774 -19.6618 0.0479
C -12.3333 -8.2726 8.2229
H 47.5483 38.4828 26.9695
F 50.9898 42.8383 19.1575
H 47.3083 39.8153 15.5179
N 18.9719 18.0699 -14.2189
H 3.3861 10.5317 -29.9964
N -20.3035 -15.7601 -20.0270
C -39.4157 -29.9883 -8.5030
N -55.0035 -50.6419 -2.8422
H -34.9720 -42.1905 15.7002
13

O 5.4360 -3.3223 9.8994
C 3.4587 -1.8076 4.0623
C 1.2819 -1.8121 0.0353
C -4.0663 0.6162 -3.4221
C -6.4350 1.1777 -6.3114
C -7.2523 2.4722 -7.1360
O -5.1292 1.6262 -7.0175
N -5.2399 1.6570 -2.3941
H -2.7371 -2.8941 0.3176
H 4.8934 -4.1077 10.5588
H 6.6750 -1.4643 6.3911
H 7.6708 3.8518 3.3770
H 1.4439 4.0070 -8.3602
17

H -35.1844 110.3471 9.5249
O -12.9458 69.3302 -1.3158
C -3.3709 36.1508 7.3957
N 11.6639 -2.8368 -14.5739
O 15.9652 -49.8623 -7.0373
N 19.1571 -84.8898 1.9576
F 17.9428 -71.9355 9.4728
F 10.0812 -41.6473 -5.4138
C -7.2118 12.3348 13.1201
F -39.7227 115.0818 20.4499
C -39.5362 115.0860 23.9095
H -35.4299 85.4884 -0.5457
O -6.6735 35.6625 8.5415
O 19.8239 -39.8504 -5.2222
O 24.2958 -74.0268 -18.4785
N 35.3709 -112.0138 -28.9087
O 25.7745 -102.4189 -12.8762
19

H 181.5703 -169.7645 -160.7144
C 116.2249 -109.3913 -109.0317
N 85.1691 -87.4962 -98.3184
H 30.4776 -36.1264 -56.9738
N -49.8349 28.5418 14.0286
C -114.1323 91.6411 95.4517
O -137.1214 123.9316 146.4466
N -125.5266 127.9613 153.9157
N -60.3174 71.9760 99.1019
C 202.2458 -184.6119 -170.0394
F 209.9538 -186.6476 -191.2531
N 192.4133 -176.9348 -194.4056
F 110.5698 -102.0348 -168.9908
O 66.3967 -69.4905 -124.5919
N -19.2995 2.8908 -38.9386
O -114.4951 96.2198 85.7187
O -189.5715 187.1758 211.7803
H -220.8377 218.8640 273.1363
H -163.8849 173.2959 233.6782
15

C -8.1646 10.7638 15.6390
C -3.6190 5.9745 7.7733
C 0.5951 2.7116 -1.7205
C 4.1185 -2.7387 -3.9459
O 6.8186 -7.6095 -3.7850
N 5.5653 -9.0829 -10.0940
C 4.2394 -8.1298 -9.7021
C -0.3895 -7.5331 -4.7898
N -1.9069 -1.0377 -2.1949
H -9.5239 12.8928 19.9596
H -5.5385 13.4361 15.4969
H -7.5089 9.9622 10.6645
H 0.8606 -0.3380 -5.7778
H 9.7383 -7.2592 -16.3930
O 4.7155 -12.0122 -11.1304
14

C -1.0600 4.6594 -8.4281
C 0.0441 2.0178 -3.9887
C -1.4307 -0.5411 -1.1819
C -0.3600 -2.4027 2.3785
O 1.1230 -4.0535 5.6036
O 1.7095 -3.2086 6.1862
O 2.7635 -2.6463 5.0348
N 2.9799 0.4470 6.3427
N 4.4089 1.7350 3.6281
H -3.0089 5.3311 -11.4296
H -3.3928 3.0314 -10.4437
H -2.2615 0.3075 -5.3256
H -1.5440 -2.2887 4.6031
H 0.0290 -2.3884 7.0206
12

C -0.2590 -2.7426 3.9735
C 0.5092 -1.1530 2.3668
C 1.5060 0.6111 0.2803
C 0.1527 0.9328 -0.8982
C -0.6524 2.1606 -2.9568
C -0.1811 2.9797 -3.9974
O 0.3071 3.6010 -3.6238
N 2.2093 1.9429 -4.7457
O 1.1493 1.1705 -3.4904
H 0.7013 -4.0751 5.1251
H -1.2559 -2.7834 4.1111
H -4.1865 -2.6446 3.8555
19

H -23.6886 -8.2984 -123.9084
C -17.3112 -5.4702 -80.4776
C -20.0026 -10.3430 -69.2690
F -14.4092 -12.0017 -35.5570
F -5.6385 -3.4586 17.3421
C 9.0978 3.3038 68.6371
F 23.2070 7.7591 100.7223
F 30.4284 14.7540 101.3836
H 32.1983 12.8097 66.4868
C -22.6549 -11.6581 -131.9600
F -30.7233 -10.3555 -142.5974
N -43.1503 -7.2017 -141.8320
N -35.1594 -12.8545 -110.4787
H -29.0280 -17.7247 -77.6493
N -15.5531 -14.1545 -12.5139
O 13.1091 -0.2541 74.6245
F 35.9944 17.4370 151.8894
H 54.8369 29.4816 188.5047
C 58.4473 28.2299 156.6528
20

C -3.4214 128.2032 -121.7311
F 1.2806 66.1084 -68.5177
H -9.3379 16.4970 -8.7438
N -4.3168 -24.8681 47.1138
C -33.9683 -68.7648 76.8678
H -8.0756 -93.2666 84.0966
F 20.9634 -67.7244 51.9478
N 26.6206 -19.6035 2.5576
H 3.3278 65.8484 -79.7145
N 9.3464 148.8125 -136.7028
H 23.8874 97.3540 -96.8371
C 37.6416 55.4503 -58.3618
F 24.0777 -34.9600 59.7847
N -23.2559 -55.0610 127.2522
O -100.6874 -45.3061 159.1182
O -179.4985 39.6344 157.2905
N -232.4867 76.5304 55.7038
F -101.5152 17.7144 -33.5067
F 148.6445 -24.1573 -183.2251
C 400.7737 -278.4413 -34.3925
14

C -4.4826 4.3566 6.2190
C -2.2085 2.3400 2.6884
C 0.1522 0.7634 0.2407
N 1.2431 -0.6709 -1.5416
O 2.1868 -0.6742 -3.8007
C 1.8057 -2.4134 -4.4563
C 3.4684 -2.4081 -2.6210
O 1.9521 -4.1876 -2.7125
O 1.8096 -1.9350 -0.5315
H -3.3914 4.7450 7.8712
H -5.2523 5.0741 4.6325
H -3.6929 2.3758 3.0541
H 2.8576 -3.3443 -4.3013
H 3.5524 -4.0215 -4.7410
21

F 96.4640 11.7433 108.7560
C 40.8894 16.1933 65.8337
H -23.6528 -6.4367 54.6834
F -70.7968 -13.3104 1.0669
F -104.1403 -6.3489 -41.6228
C -62.5917 21.7107 -5.9724
C -17.1202 10.1668 -82.1883
F 48.3449 10.5094 -71.1319
H 61.9539 -30.5480 -106.4790
F 94.2225 13.7335 128.6694
H 62.3168 14.6628 142.9756
N 16.1341 20.8219 187.6982
F -97.1454 -19.8935 74.3583
C -145.1914 -133.8094 -46.1451
N -131.1741 -146.6127 -167.5342
C -9.6763 -5.1912 -248.4216
O 139.8188 165.7485 -171.8459
H 273.1179 247.3139 53.0831
F 204.5514 240.3362 182.7442
N -185.9810 -144.9273 237.1676
F -190.3438 -265.8621 -295.6954
22

H -96.2225 102.3075 -66.4189
O -33.0232 60.0862 -38.2183
F -68.8252 85.8513 -113.5234
O -142.9369 55.1646 -298.2132
C -99.9752 26.3961 -199.0452
H -8.2163 -11.6207 -86.6342
N 188.6042 -96.0002 152.1736
F 193.8078 -133.1923 283.1438
C 82.4443 -167.0258 365.0924
C -78.6866 105.4926 -98.6497
O -45.6593 79.4053 -170.5908
O 6.3278 137.0689 -253.1646
H -117.8316 162.7061 -206.8298
O -383.2335 -16.4908 -76.7645
O -410.9374 -70.7397 -86.7966
H -360.8354 46.5140 -101.2071
F -107.6819 -53.2827 -239.1364
C 282.1736 -37.9299 -376.3021
C 362.2254 45.0446 55.3052
N 668.8345 444.9092 455.2030
F -12.4968 -571.1124 824.9644
H 182.1443 -193.5519 275.6122
20

H 15.9067 -129.3696 22.7260
N 10.5694 -76.9049 17.4930
C 9.2122 -46.5292 17.3533
C 13.4903 -6.8997 3.6742
C 10.2630 37.0062 -13.7470
C -3.2023 77.1069 -17.0806
F -24.6261 91.7298 -16.3193
F -25.5286 72.0835 -9.1327
C -2.5428 16.2376 -10.6852
H 12.5950 -143.1342 26.4889
N 2.8631 -136.7564 34.8458
F -14.0532 -114.2429 42.1144
N 3.2594 -38.4082 36.9496
C 23.3100 -9.5740 10.2707
C 49.0624 17.5169 -60.8758
O 88.6166 44.0288 -118.2273
C 105.9029 71.6579 -125.7631
N 35.4348 94.1120 -64.3883
C -66.7514 98.7338 44.1926
H -243.7813 81.6059 180.1110
23

H 62.0505 126.9826 224.8981
C -11.3135 54.4276 111.3045
C -34.4403 -21.4366 64.6135
C -49.8685 -0.6896 73.6434
C -54.5274 -8.7555 -7.4996
C -22.7595 -3.4080 -61.2801
O 54.9829 -125.4038 -201.1778
C 120.2606 -139.3248 -235.8085
C -71.0064 13.0791 -112.6338
C 15.2293 214.3795 282.0190
F -35.1401 200.8950 359.6761
N -237.0761 196.4431 443.3783
H 21.6245 51.8883 46.9430
H 107.7169 -14.0368 -147.2597
C -107.0377 -3.1919 -20.9437
C -214.9111 -198.9350 -81.0725
H -292.9601 -262.3144 13.8553
O 315.0058 -250.1519 85.2448
H 298.9683 -20.5325 -31.6403
F 255.7607 -35.1111 -536.4581
F -445.1831 -152.7582 15.7568
H 334.7012 -52.7005 -187.6805
H -10.0771 430.6555 -97.8780
15

N -13.2713 13.4350 -13.8726
C -7.3310 7.1413 -5.5115
C -6.9076 3.0266 -3.8204
N -0.6464 -4.1884 3.0351
C 7.8642 -7.3770 6.8825
O 13.7792 -13.7342 8.7912
F 10.6026 -9.0337 6.5339
F 4.0467 -7.9863 8.1853
C 7.1850 -1.2782 1.4229
H -23.4608 14.4141 -22.3777
H -10.9940 18.1890 -9.9126
H -7.1420 8.4702 -7.7601
H 1.9791 -0.8000 5.3034
H 9.5014 -8.9959 12.5578
O 14.7948 -11.2824 10.5428
20

H 205.4498 9.7816 111.4093
H 127.2373 9.6256 71.8804
C 94.9977 19.9695 55.7744
C 39.3756 24.9909 16.1298
C -32.8972 16.5335 -26.5161
C -110.8737 -2.3588 -62.0105
H -166.0726 -28.0850 -84.4904
F -151.4422 -35.7668 -70.7000
C -62.9065 -29.2395 -36.4766
H 221.7606 7.0652 123.0793
N 202.4547 9.3850 126.8394
F 162.4440 7.6145 120.6550
N 93.7046 38.9665 77.0955
O 98.4035 64.8635 36.0597
O 68.5186 68.1324 -44.4485
O 38.1795 58.8427 -129.7662
C -25.8023 33.0493 -168.8898
N -164.8287 -37.0799 -141.8041
C -267.8688 -88.6099 -51.9420
H -369.8340 -147.6805 78.1214
23

N 69.7760 9.1378 13.9680
N -10.6204 -50.7184 38.6059
C -43.8959 -33.4601 230.7747
C -49.9706 -28.4638 129.5489
O 54.5554 -62.3814 68.2896
H -21.2728 -149.0502 82.4908
F 7.7780 22.6824 0.9489
F 114.5962 53.7594 -153.3675
C 302.0134 145.1663 -386.9258
C 146.7208 119.6758 30.3125
F -132.5723 -22.8235 -34.4576
F -287.6912 -77.4354 240.4608
H -93.0427 28.0232 405.1949
H -16.6061 70.6489 322.9034
C 217.8580 382.7541 -63.0247
O -238.5346 20.1434 282.0400
N -179.3969 -344.9633 -261.0447
N -126.0570 -405.3754 8.7590
N 219.8429 483.4800 -95.1327
F 80.3178 313.5728 331.4720
C -195.5998 522.1080 -218.7995
H -158.4069 -666.0698 -197.5680
O 340.2089 -330.4112 -775.4490
20

F 129.2195 -270.9153 281.9812
H 72.7024 -152.9020 157.8371
C 49.9460 -60.0811 76.9636
N 35.7995 31.5583 -35.1950
C 16.3730 110.4095 -136.7597
H -57.1543 146.5455 -154.9974
C -126.5967 133.8403 -146.7616
F -114.3087 64.6522 -82.3844
C -16.3800 -21.2580 42.8663
H 159.3235 -270.3180 304.1340
N 67.2354 -264.4061 250.2285
O -21.6521 -235.9601 182.5766
H -21.5060 -31.9148 8.8504
O 112.6207 116.2016 -48.8067
O 263.6397 254.7653 -173.7854
H 361.8017 346.2439 -188.7417
O 306.4601 356.4630 -173.3197
O 3.0906 164.7664 -89.9409
O -331.6822 -39.8243 61.2941
H -888.9322 -377.8664 -136.0393
16

H -40.9844 -38.2734 -9.1522
F -21.9588 -20.0246 -1.9836
C -4.5064 -6.0744 -2.8060
N 8.4672 6.3541 -1.6765
C 17.2889 18.9534 0.5604
N 23.9080 24.7487 0.8900
N 20.7345 22.8450 2.6705
F 7.5745 20.8102 5.1894
O -3.9977 12.9589 4.2592
O -43.5337 -36.7123 -10.2811
F -36.1752 -41.8664 -9.4788
N -29.7749 -36.7191 -8.7095
H 0.2836 -4.9803 7.1879
O 26.9667 14.9510 10.3146
N 43.9954 31.0150 8.1998
N 31.7124 32.0142 4.8158
16

F 0.5359 19.4924 -118.6364
F -7.2526 12.8619 -70.6528
H -8.0234 3.3290 -25.4011
C 16.7526 -22.3080 28.7118
H 5.6402 -28.0475 73.5173
N 0.4917 -10.0460 81.0190
F -9.4500 -6.5217 61.9261
C -18.6897 -8.2690 48.1469
H -7.1900 -8.6552 -6.4845
N 9.3489 26.8042 -121.6322
H 9.1888 13.8830 -126.3116
C 0.8756 23.2567 -84.8819
H -1.4392 -15.5018 -9.1301
N 5.0738 4.4726 55.2617
O 5.3397 6.9228 99.1325
O -1.2023 -11.6735 115.4152
22

O 123.5496 -34.2437 243.9081
C 107.8867 -43.3884 66.2943
H 88.1164 31.8858 27.3902
F -121.9664 147.4623 -90.9619
F -213.6493 151.1025 -24.3133
H -234.7685 -42.5463 -6.4151
C -168.0626 -38.3575 -56.7992
F 160.9581 -81.1683 -173.4697
C 427.7469 -84.8673 -166.6302
O 211.8989 -173.4523 193.8458
N 84.8740 -171.0403 292.3424
H -225.2050 -345.1888 206.8240
C -97.2144 299.6001 60.6004
O 80.9366 434.1369 189.2785
F -180.8308 514.6296 -162.0758
N -153.2410 382.0441 -98.0718
F -78.2863 -55.4377 -87.0363
C -38.0355 -839.4860 -257.1803
H 235.2910 -408.5768 275.1794
C -483.9234 -77.3423 250.1815
C 427.8636 459.5138 -458.6935
H 46.0614 -25.2794 -224.1975
18

F 32.2089 17.4692 105.6953
C 17.0243 12.6481 61.6169
C 3.9325 9.3645 32.2392
C -4.1685 -3.8361 -8.4312
F -17.0569 -13.4958 -46.1544
H -21.1405 -11.7640 -68.0439
F -10.5795 -10.9819 -65.9496
F -6.9831 -5.7871 -39.9100
C 2.7331 3.1389 0.7470
F 37.9067 21.0446 117.1167
C 32.4226 17.6723 111.3677
O 28.9419 10.3852 97.0745
F 4.2802 10.6635 34.3120
O -10.1201 -1.5183 -18.8451
N -26.9228 -17.8212 -60.2423
N -26.8868 -22.4748 -89.8278
O -24.3932 -11.5384 -95.0610
H -11.1986 -3.1687 -67.7040
17

N 113.7935 -132.6818 -8.1421
N 65.8837 -83.4928 -11.7747
N 32.4021 -29.7564 -14.7462
H 6.5244 14.5562 -17.7324
F -43.0209 45.5989 -11.7396
N -75.2961 53.3598 25.4169
O -72.6536 73.9075 35.1121
F -64.7711 78.8545 -0.1498
C -43.9845 52.4773 -17.4428
F 128.2442 -156.4525 -16.0268
N 104.0081 -120.4805 -7.0081
H 88.2961 -144.3505 -11.6078
H 34.0594 -28.7909 13.5865
H 5.3795 21.2526 6.3926
O -79.1581 103.4612 43.6254
O -63.6097 125.8073 -12.0898
O -136.0970 126.7300 4.3264
20

H -85.0418 -29.3554 -122.3885
N -53.9769 -17.6547 -77.0316
C -38.3277 -7.6664 -65.4987
C -5.2843 8.3078 -24.5977
C 34.4236 22.2755 23.8844
H 53.5058 22.1732 71.0270
H 51.6918 8.3910 97.4651
N 45.3946 -2.9656 95.2505
C 33.5555 -10.2878 65.3041
O -93.6673 -33.4104 -131.0746
N -122.3171 -32.7581 -144.5038
H -140.5187 -37.2571 -153.1065
H -79.1894 -8.2432 -113.7975
N 7.3422 35.4230 -71.9404
H 103.4902 78.0170 0.6650
H 190.4052 108.2965 95.2780
O 221.0710 93.3806 163.8584
O 128.0050 28.7601 187.3622
N 5.3949 -47.1971 162.1550
C -255.9566 -178.2288 -58.3103
15

N 26.6491 0.7385 36.1893
C 11.5088 2.9988 16.1487
F -1.3811 -0.0456 5.1294
N -4.4942 0.4700 -5.2414
F -12.2373 -0.5675 -17.0684
O -14.3258 -1.1193 -23.1343
O -19.7331 1.3452 -22.1237
F -10.2220 0.5841 -15.5227
C -1.6604 6.9410 1.8683
O 28.4024 2.9245 36.1286
H 25.1119 -2.5713 34.1058
O 14.8406 -5.3762 24.5477
H -14.5956 -4.2163 -12.4343
H -13.7166 1.1156 -24.8415
H -14.1467 -3.2214 -33.7514
14

C -7.7395 2.7447 -2.9520
C -3.5280 0.7172 -1.6438
C 1.7308 -1.8352 0.3391
N 6.0542 -2.0298 2.1114
C 6.0184 -0.3835 1.7319
N 6.0968 -0.2626 1.9690
O 4.2708 -1.8693 0.7228
C -0.2869 -0.4360 0.1141
O 0.0699 0.0878 -2.9029
H -9.6418 2.9762 -1.4024
H -9.2713 -0.1147 -0.4397
H -7.3098 -1.1972 0.6977
H 6.0642 0.9029 -0.7344
H 7.4722 0.6994 2.3893
16

N 0.6852 -12.0251 25.6425
C 0.0934 -7.2074 14.4488
C 0.8964 -3.6185 4.8287
C 2.3839 -1.0825 -5.2664
C -2.4354 2.9044 -14.4046
N -3.8135 7.4418 -18.1273
C -3.6138 10.0792 -13.3844
C -0.7269 7.5335 -4.8385
C 0.6256 -0.7113 0.7510
H 1.1830 -12.9414 27.9042
H 2.5640 -12.7679 23.8469
H 0.2834 -9.4549 21.2733
H 0.7973 -1.2106 0.9254
H -0.9409 7.8357 -14.4346
O 4.3870 13.9687 -27.6436
N -2.3688 11.2563 -21.5212
20

F 102.9416 137.8780 -95.5584
C 71.0991 81.1907 -62.9653
O 28.8273 43.0752 -77.6451
C -12.6772 -9.0087 -73.0570
F -54.0967 -61.9415 -29.8459
C -75.9380 -84.6919 51.7775
F -62.6236 -95.7652 107.5051
O -36.6756 -38.3553 137.2865
O -24.9762 17.5776 100.6419
C 123.4248 150.0039 -95.4463
F 138.3305 127.8100 -101.2805
O 138.7136 83.2294 -107.7636
F 51.6798 6.5876 -124.5079
O -11.6616 -33.8028 -163.3348
N -115.3611 -78.9777 -149.8144
F -184.1502 -45.6556 -64.3222
O -224.3840 -0.9110 79.5771
N -142.9331 -21.8475 203.3769
F 21.3830 -27.4989 281.6487
H 269.0776 -148.8960 183.7278
17

C -82.5564 -60.8611 115.5554
F -37.8568 -38.4346 78.8075
H -30.6807 -23.5823 42.2500
C 10.7455 8.2539 -15.1218
H 29.2892 18.2110 -60.6255
C 41.2149 54.4006 -79.1784
F 46.0949 45.7837 -78.8775
O 29.4551 28.8048 -35.2498
H -6.7567 -9.3283 -0.9537
H -89.3930 -65.3427 120.3465
C -75.1920 -68.3355 107.6638
H -67.3939 -66.1298 100.8168
F -4.1283 7.6870 9.9764
O 24.6456 32.2598 -37.9012
C 70.6762 56.0177 -74.4582
F 87.8386 40.9140 -91.1891
C 53.9977 39.6819 -101.8611
17

F 10.8548 -20.9831 97.4213
C 6.4314 -10.8992 59.1050
O 6.6129 0.4444 29.5639
C 4.7395 0.6529 -5.9650
N -7.2593 0.7202 -53.3968
H -10.4206 9.9727 -69.3764
C -14.6372 13.1653 -64.3554
F -10.7037 13.7610 -39.3518
C -5.6621 0.8633 -6.6656
H 5.8285 -11.4299 107.7584
C 7.8201 -11.4929 98.4043
O 14.2891 -6.7491 86.9263
F 9.8869 -11.8698 29.0264
O 7.5680 4.3779 -30.5970
O -7.0715 7.9339 -62.2981
H -1.7052 12.7915 -87.9304
C -16.5715 8.7410 -88.2690
13

N -4.6773 0.4540 5.2244
C -2.5284 0.3646 2.6782
C -0.4388 0.7288 0.2303
N 0.9373 1.8574 -2.7862
O 2.6015 1.7243 -4.0920
C 3.6710 -0.0363 -4.9248
O 4.7842 -2.7453 -2.2617
C 3.3281 -4.7087 -2.4099
N 0.2585 -3.7026 -1.1956
H -5.4821 3.1470 6.3672
H -5.5138 1.8418 3.1008
H 0.3787 1.7515 2.9898
H 2.6812 -0.6765 -2.9202
18

O -78.3474 -8.1560 -19.7007
F -48.9603 -6.2308 -10.9282
H -28.8669 0.4974 -6.7652
N 4.0258 2.1577 -2.2126
C 33.4545 5.8676 6.4611
O 51.0549 9.5924 8.8213
C 50.4790 -1.4942 10.3057
F 38.2705 -7.8969 3.5997
C 12.1431 -13.7344 1.5284
H -86.9539 -1.9119 -15.7683
F -85.8678 -6.6849 -12.6006
C -74.4184 -2.3815 -4.0003
H -27.7068 12.7062 -7.9708
O 2.7563 14.6289 0.8374
N 37.6113 22.7731 2.1700
N 66.8193 3.2822 16.1961
F 75.7119 -7.6692 12.4810
H 58.7948 -15.3458 17.5459
16

F -65.2416 -128.1324 -19.5100
F -37.5502 -66.2672 -10.8656
C -14.5482 -21.9774 -22.1868
N 16.2131 27.7476 -2.2420
C 32.1376 65.5225 4.9706
O 49.3748 81.2847 5.0675
O 33.7008 83.7815 10.9445
F -15.0068 59.5609 17.6049
H -27.4490 3.4396 8.0058
F -73.1957 -128.2364 -17.6237
N -62.7902 -125.7205 -1.7051
N -48.0990 -109.9499 -2.0314
H 18.5511 15.0779 1.6428
O 31.3252 62.9802 -2.7331
N 78.9620 109.3547 22.4621
N 83.6160 71.5340 8.1995
17

N 40.9924 -43.9254 -58.2186
N 24.6388 -23.7102 -36.1638
C 8.4513 -11.8943 -22.5325
H 1.3640 3.5446 0.4895
O -16.2324 14.3288 30.2658
N -26.1595 21.2836 47.8857
O -16.5550 30.4317 42.7149
N -17.6881 25.9043 18.4025
C -3.6675 8.3415 -1.7777
F 45.8329 -54.0720 -66.8309
C 36.1081 -43.8503 -62.0156
H 23.1153 -52.4006 -60.2430
H 8.4945 -6.9205 -19.0224
H -7.9277 11.1577 19.5734
O -29.1597 34.6046 57.3959
H -32.7035 40.7794 58.6884
O -38.9039 46.3971 51.3884
14

C -9.4255 -8.7377 12.5055
C -2.8131 -3.3462 4.2493
N 3.4678 2.3828 -0.0175
C 6.7472 2.7840 -3.7934
C 4.7891 4.0390 -5.6352
O 3.3421 3.8844 -7.0832
C 2.4459 2.1287 -5.2350
C 3.6677 -0.2887 -5.7500
O 4.5914 -2.9304 -4.8818
H -10.4505 -10.6111 15.2123
H -11.5625 -5.7955 11.9434
H -12.4043 -8.5117 6.2265
H 2.7051 12.1383 -11.6609
H 14.8997 12.8642 -6.0798
23

F 168.8287 -64.8996 -237.0353
C 152.5056 31.7508 76.1064
H 113.3787 56.3168 119.8887
O 220.5073 185.0198 168.0216
F 88.0057 -16.1831 361.9149
H -322.0685 -71.7595 162.1701
N -384.2306 -189.5152 4.0633
C -198.8142 -257.8787 -373.4729
C -80.5784 -222.8428 -465.8976
N 98.7441 -158.9774 -54.9683
N -146.3617 34.9948 123.1768
F -263.8918 162.4107 93.0917
O 567.5212 748.1787 121.6257
N 684.0613 511.9847 -125.9527
F 779.1360 -322.7750 -356.2026
N 23.2665 -319.7906 454.0316
F -486.8822 -479.5161 420.4364
O -577.6179 -709.5797 277.9975
F 99.6710 580.7018 -500.1038
N -386.0375 -354.6295 -72.7853
F -6.7380 -41.5070 -54.2717
H 102.9583 675.1101 124.0459
H -245.3638 223.3859 -265.8804
18

F -86.7795 120.6118 219.9467
H -35.6020 86.0119 128.4431
F -36.4565 53.4596 69.5785
F 3.0938 11.9120 0.3150
O 33.4564 -56.7343 -88.9205
N 48.5770 -74.7979 -144.8391
F 51.2438 -89.5078 -144.5710
N 47.8075 -69.0092 -115.4492
C 9.0047 -22.6335 -14.7879
O -96.9636 144.5028 241.8544
C -98.2387 146.4877 250.2763
O -79.0929 122.9400 224.6347
O -41.9304 46.2430 93.7616
O -5.6382 2.2309 -19.4999
C 41.3950 -69.1750 -131.0818
H 81.6281 -116.2158 -192.1943
O 89.4238 -115.7653 -214.1463
H 75.0717 -120.5608 -163.3204
22

F 69.8921 -10.0522 -111.5202
C 75.7080 12.6061 -118.0128
C 157.5423 17.7667 -67.5050
H 144.7952 88.5895 6.6353
O 38.2937 84.0170 41.0880
C -111.2638 73.5378 87.0907
O -195.8993 -13.7922 128.8695
O -228.5527 -79.9905 77.9374
H -163.1628 -160.1843 -1.4481
C 75.7452 -68.9968 -140.9457
C 136.4624 -10.2182 -152.7689
F 193.7027 -3.8689 -244.0878
O 364.5105 136.1936 -39.6417
O 312.2207 206.6534 5.5882
F 90.3597 -53.2724 -115.7150
C -43.9676 -57.4854 -85.0325
O -123.3928 147.7527 -185.7963
H -253.5248 326.9038 -104.8836
O -195.5107 230.6365 86.3600
N -512.1895 -110.5416 437.9154
H 111.3341 -441.9299 272.6932
O 56.8975 -314.3247 223.1799
17

C -54.5223 37.1626 -8.9955
O -26.7866 24.0942 -8.0178
C -8.1270 11.5121 3.3091
N 11.9896 -5.9026 1.2020
O 30.6866 -16.3886 1.1511
N 31.8782 -29.5389 11.1186
O 30.5724 -22.5117 5.9875
F 14.0199 -19.8192 -6.0056
C 0.1982 -7.8618 -1.6350
F -61.7990 29.6914 -0.9846
F -56.1338 41.3060 -2.0705
H -59.2804 35.2751 -14.0519
O -4.9871 20.2152 -0.8116
C 29.1792 -5.7141 2.9527
F 35.0665 -19.4675 12.8394
N 49.6834 -33.5295 1.5992
H 38.3623 -38.5226 2.4130
20

F 41.2633 -243.4071 18.9867
C 28.1235 -145.5176 4.9381
C 20.8956 -104.5532 -17.6396
N 1.8697 -16.2568 -22.1348
C -0.9904 89.2645 -18.2852
C -22.2413 150.3009 -5.0225
H -33.2023 159.1511 11.4624
C -34.6928 126.3080 26.7615
C -9.7746 46.6269 38.9892
O 51.6183 -272.1162 19.6390
N 33.4109 -275.8362 3.6214
O -2.8871 -279.7974 -8.4000
F 2.7376 -123.6635 -49.6053
N 27.7891 4.1406 -54.5006
O 59.7728 156.5182 -62.5029
H 59.6062 290.6140 -35.7817
N 30.5650 353.3979 -0.9946
N -36.4218 261.7048 61.0539
N -69.1238 85.5988 108.8234
N -148.3180 -262.4778 -19.4082
18

O 82.2226 30.9473 -179.7903
H 49.8367 22.8246 -110.5500
H 35.9393 22.7811 -43.4828
H 6.3587 18.8437 15.6709
H -25.6074 -2.5586 83.7521
H -48.4253 -28.2918 110.0284
O -48.2170 -37.4849 93.2870
C -48.2079 -37.6085 61.6768
H -20.2163 -17.8427 -1.4081
N 76.5476 42.7044 -180.3987
C 85.8413 51.4420 -180.0049
C 67.9211 47.4824 -140.2266
O 39.1793 43.6447 -33.2325
N 14.6636 26.8240 40.2668
C -29.0667 -7.1521 100.6580
O -73.4905 -33.3958 147.0576
O -91.0878 -71.5922 117.3293
C -74.1913 -71.5676 99.3668
18

C -255.6849 116.4309 298.4420
O -137.1569 86.6342 163.7849
H -106.5397 61.8683 80.9602
O 25.0488 25.8689 0.7235
O 110.4591 -54.1060 -128.5477
N 169.5023 -74.6264 -204.1165
F 159.2850 -91.9148 -186.9602
N 107.7943 -99.3122 -145.8360
C 13.6477 -40.6672 -4.4553
H -289.8963 149.4348 331.8661
C -278.6025 149.3005 305.4182
H -226.5484 140.0304 288.9856
H -89.5902 75.2778 100.4697
O 18.0437 50.0443 -24.5199
C 136.9975 -51.3628 -179.2493
O 216.4984 -111.0542 -229.8356
C 229.6807 -139.8142 -283.6919
F 197.0613 -192.0323 -183.4380
23

F 5.7087 -72.9441 139.3096
O 42.5772 55.6172 127.2058
N -42.3840 82.3111 -0.2564
C -306.4678 -38.7134 -110.5806
F -303.3417 -179.9075 -251.2162
H -229.9742 -181.8576 -186.0190
C -79.6497 -260.5562 -185.5347
C 131.2977 46.4695 48.3977
H 251.9803 287.6421 394.7164
C 37.6171 -170.1873 169.5221
H 126.3351 91.9478 348.9902
C 102.8377 411.3769 188.8650
O -130.3335 346.2729 -271.6101
H -289.1434 -275.8328 -436.5938
N -352.3172 -733.8109 -357.2881
C -70.2684 -302.5363 -373.2916
O -99.2674 196.9671 79.2941
N 218.2778 -2.0304 232.7707
F 591.8818 304.0909 269.3333
H 374.0385 -250.7904 -53.3244
F -82.1693 155.6069 313.7123
H -142.6941 171.1651 -84.4141
F 245.4590 319.6993 -1.9884
23

H 333.5617 -41.5175 -41.3925
C 278.1206 -83.1148 30.2091
O 99.4709 22.8321 112.9583
F 105.5387 247.4672 179.7293
F -15.7891 212.0759 96.6960
F -183.9837 -42.1202 99.4651
C -298.9355 -82.3824 -75.5654
F -112.8007 -228.1617 -43.6234
C -60.8686 -222.8184 31.7084
O 310.3038 139.9069 85.7057
F 159.0575 251.5359 -223.1119
H -40.0430 253.5895 69.6027
H 187.9228 437.7001 214.2849
H 346.8935 511.9739 -151.4136
C 385.7159 542.7552 -185.2202
O -388.1246 -437.1220 -258.1707
F -402.7871 -815.1785 -631.8864
N -252.5268 -174.9252 157.8478
F 69.5555 157.8220 40.8583
F 324.9338 -426.2747 -55.7699
O 266.9366 -285.5552 -18.1161
N -541.1714 -227.5055 310.6614
H -570.9805 289.0173 254.5429
18

O -273.8190 -37.5005 -87.2227
N -179.2620 -17.9264 -51.3883
C -103.6698 -15.1564 -41.9139
N 12.5603 5.6615 0.6662
C 113.5932 16.6132 33.0417
N 190.7224 34.7943 48.8341
F 184.7472 9.3709 52.4558
F 141.9804 2.5347 39.0165
H 45.4535 -12.6147 19.0707
O -284.3631 -16.6453 -96.7155
F -308.9876 -30.5563 -101.2069
N -274.3177 -42.2379 -73.8701
C -112.3197 2.6251 -37.3724
O -2.3901 28.9807 36.3348
O 119.9880 49.7956 41.1723
O 228.9907 48.5006 99.1586
F 268.0562 6.9223 69.9291
F 233.0370 -33.1613 50.0098
11

N -4.1596 -5.0718 -10.2298
C -2.3916 -2.9364 -4.6971
O -3.1251 -2.2381 -1.4577
C 0.9765 1.3695 5.3789
C 2.9557 1.8042 5.2565
N 3.8347 3.8995 6.7600
F 1.3431 3.2026 6.4902
H 3.0493 4.6856 6.0786
N 5.0739 0.1269 2.1540
H -3.8604 -4.1071 -8.7738
H -3.6966 -0.7350 -6.9597
14

F 3.0484 -27.7992 -20.1057
C 3.1167 -16.5258 -9.9534
C 2.9449 -8.8824 0.8188
N 5.2224 5.2566 10.7022
C 0.5160 18.0789 13.2559
C -4.6809 22.9135 11.3415
O -6.9468 18.7883 10.8428
C -4.6497 18.0853 3.0479
N 0.3477 14.6798 -0.9020
H 0.0706 -29.5694 -18.5609
H -0.9543 -19.3791 -9.4886
C -1.3674 -6.2043 -7.9742
H -2.9436 2.4520 8.9035
H 6.2761 8.1058 8.0720
21

O 72.6886 12.7970 -27.3553
H 36.9775 10.3596 -17.0526
H -44.6588 -6.6924 -10.2759
F -140.4894 -15.5327 -24.9739
C -214.2959 -19.7613 -1.0325
H -174.2552 -53.5462 19.0360
O -49.0256 -33.8173 4.1070
F 203.3865 24.8741 37.2108
H 418.3472 119.4977 24.3549
C 68.6918 -4.0095 -11.1262
C -1.3521 -24.0441 -19.0587
N -83.9671 -68.7606 -16.5276
F -166.3964 -12.4697 -3.5366
F -162.6712 58.4136 -27.5744
C -222.7677 80.9420 -32.2014
F -221.2717 134.2208 -103.4743
O -184.7209 179.0594 -63.2357
N -168.1774 25.9962 22.5053
H 58.7480 -147.3020 88.5777
O 100.5989 -519.2755 113.4420
O 874.6109 259.0507 48.1914
20

N -114.8661 -62.1935 -48.0707
F -62.9317 -40.2308 -26.9478
F -67.9762 -20.0153 30.1948
C -31.4215 15.5064 63.0100
N 22.6218 32.0297 78.4858
C 66.4604 48.0089 51.3247
F 90.8904 32.1255 -15.8798
C 89.1521 9.2340 -59.6858
N 82.3657 -2.4997 -83.9548
N -112.2051 -71.5463 -68.7465
C -165.8221 -81.1001 -43.9225
C -212.3611 -81.8352 -35.0607
F -142.1785 -40.3990 62.5880
O -37.1463 41.8099 151.7832
C 85.9203 109.0829 183.4043
N 219.6721 168.0459 175.9584
C 292.9671 169.8987 54.4456
C 222.0185 77.7509 -77.6776
O 108.6113 -22.2257 -211.6775
F -333.7709 -281.4471 -179.5710
14

N -9.2573 8.4249 -7.5308
C -4.7930 4.4321 -3.5504
C -1.2376 1.3313 -0.1321
N 0.2915 -1.8527 1.6735
C 2.6821 -5.0587 3.1105
O 4.4176 -6.3151 5.5126
O 6.4139 -5.5628 6.1051
C 8.4415 -1.7180 4.0662
N 7.8257 -1.7983 0.9772
H -9.7410 9.0406 -11.8710
H -6.0921 7.8090 -7.0716
H -6.3291 3.8374 -2.5434
H 1.3751 -4.7573 5.7032
H 6.0026 -7.8122 5.5510
21

F 115.1263 0.0841 -35.5334
F 64.4571 -17.3349 -13.7330
H 18.8624 -48.1849 -6.5986
N -33.8889 -74.7805 -33.3928
H -58.9009 -84.5690 -59.1473
H -63.7332 -59.5178 -57.1280
F -37.6246 26.6114 -27.5979
N -9.0075 123.8236 78.3511
H 4.2447 200.9038 163.2023
F 134.7601 -13.6300 -46.4374
F 115.0392 -26.9550 -18.3951
N 74.0065 -58.4907 32.6576
F -31.2968 -82.3921 31.8595
N -73.4410 -126.8857 -30.0843
C -121.0014 -138.2553 -57.4105
N -156.3873 -112.1676 -144.8042
H -120.2154 -32.9882 -233.4190
N 21.3588 58.6061 -243.7542
H 146.5655 150.0588 -95.2475
C 153.3952 20.5286 242.0063
H -142.3188 295.5353 554.6064
14

N -8.6647 15.5260 6.6146
C -3.8550 7.6584 3.7942
C -3.1000 1.0438 -1.0884
O 2.6086 -2.8283 -4.8444
C 9.9755 -6.5846 -5.4147
O 11.0900 -9.7891 -6.9625
O 7.5732 -9.2704 -3.3128
F 0.7172 -12.4379 3.7389
C -2.0142 -5.5715 9.3568
H -10.6027 16.6253 6.3706
H -12.3018 18.4167 5.5969
H -6.3818 13.2056 2.4546
H 2.9076 -10.0368 -4.5623
H 12.0480 -15.9573 -11.7415
13

N -4.1243 -0.1113 -14.0918
C -1.4235 0.1924 -7.0349
C 1.1134 -0.0432 -1.0659
C 5.2332 -3.1270 7.5443
N 4.7959 -1.6700 11.3986
O 1.8955 5.1957 12.9850
O -2.5485 6.6494 10.2401
C -1.0678 2.9900 8.1825
N 1.0917 -3.5794 5.8807
H -2.8743 -0.3738 -12.7506
H -5.3173 -2.3844 -12.2828
H -2.3951 -3.1598 -10.3138
H 5.6210 -0.5786 1.3086
17

N 118.4205 -104.4885 -94.4785
N 74.2686 -60.3004 -71.2967
C 25.1492 -19.6453 -38.7192
H 3.2918 24.9325 -5.4104
O -44.6414 43.0780 49.8388
N -71.6913 44.2144 94.1242
O -59.7568 65.4234 83.7657
F -68.1656 58.4861 29.3884
C -24.6917 22.3453 -19.4997
F 130.8596 -139.0838 -105.5317
C 108.6268 -102.8414 -100.8900
H 87.6950 -124.9086 -108.5805
H 35.3698 -3.7923 -32.3659
H -6.2468 26.2722 37.5307
O -90.4982 93.9568 88.5382
N -92.8715 85.7443 101.7749
O -125.1180 90.6072 91.8117
16

F -14.3223 -0.5928 -45.1077
H -10.1915 1.9455 -26.1093
C -3.9687 0.6678 -9.0179
O 8.0766 -1.3327 8.5286
N 9.2610 -5.8170 25.4007
N 11.1092 -1.9892 30.3242
F 7.5487 -0.9921 25.6792
N 2.8956 4.8717 18.2006
N -0.8096 7.4871 -0.4809
O -14.7585 0.0626 -48.2452
H -15.7019 -2.6440 -45.0601
H -15.5066 4.0278 -41.0411
H -4.9618 -1.6805 1.2229
N 11.0071 -4.9328 24.7267
O 17.0024 -0.5393 36.7843
O 13.3204 1.4579 44.1950
20

F -108.3737 22.3762 22.3841
C -74.2238 11.3501 15.3618
N -57.1895 5.2003 15.5283
N -42.5562 10.8629 10.8286
C 20.8994 22.8725 4.3644
F 59.2647 1.2672 -11.2383
N 89.9086 -40.9995 -30.3900
O 97.7719 -49.4343 -32.6349
H 72.5558 -4.6032 -17.6822
F -111.0074 24.5197 30.4097
N -146.8115 -11.7992 28.0226
F -177.0388 -53.8629 33.8232
O -140.6771 -35.7848 21.2596
C -40.6339 88.8695 15.7642
F 75.9769 200.3987 21.0195
H 145.3385 292.9476 26.2726
H 180.4615 275.9280 -6.2854
C 143.2235 57.5582 -18.7049
C 106.6993 -193.3063 -18.0328
N -93.5882 -624.3606 -110.0699
18

F -32.6064 -37.0738 101.2516
F -18.9842 -23.2002 60.4013
H -11.4838 -20.5742 39.1154
C -0.6414 -5.8739 -0.7652
H 10.7634 5.8354 -42.5480
H 20.0061 26.2455 -63.8225
H 23.5924 31.5730 -67.8956
O 21.9537 27.6630 -48.1091
C 5.1593 13.8196 -11.6527
N -37.0025 -38.0513 112.0602
F -37.3046 -43.2598 107.4199
H -29.5007 -46.0148 98.6343
F -20.9363 -19.0383 44.1829
N -6.3899 -10.5959 2.1210
O 12.6303 12.3324 -53.5907
H 35.2126 31.4935 -88.5666
N 31.5250 50.5095 -110.5804
C 34.0071 44.2102 -77.6556
15

N -23.6500 -7.8504 -16.2577
C -12.4496 -1.4390 -8.7089
C -0.5122 2.6016 -3.2691
O 7.3452 5.8552 0.3700
C 11.6911 8.7873 3.7507
N 10.0100 6.7763 8.4698
C 6.8442 2.1144 7.5023
C 4.1218 -1.0267 7.0485
C -0.6770 -3.8279 3.0589
O -27.3050 -8.9041 -21.7408
F -14.9704 -8.6837 -15.4476
H -13.6561 -3.4563 -8.5641
H 4.8804 4.6890 11.8068
H 23.4719 5.7409 18.1590
H 24.8557 -1.3764 13.8222
16

C 10.1713 2.9810 -5.3022
C 6.4068 1.6582 -3.7487
C 1.7662 1.5995 -0.9717
C -2.9394 -0.2510 1.3495
C -7.2203 -1.8819 2.3117
N -8.0482 -1.1770 2.8243
C -3.1196 -1.7291 2.3514
C -2.0082 -0.2956 -0.1274
N 2.1032 -0.0510 -4.2934
H 11.4664 3.6674 -6.4851
H 11.6362 2.8583 -3.7702
H 9.5194 1.5920 -4.3936
H 1.5977 -0.1599 1.8010
H -7.3690 0.0104 5.3003
H -11.4096 -3.7697 6.9528
H -12.5529 -5.0517 6.2014
18

H 23.9031 -183.8553 -13.4230
O 20.5015 -104.2247 -15.4154
N 5.0242 -68.6400 -9.2836
H 8.6068 -7.2220 6.1743
F 1.8569 74.8356 8.9927
O -11.8777 111.4169 15.0594
N -14.0040 122.1659 9.5124
C -18.3336 89.8404 4.9964
N -7.0712 31.5928 -9.3238
F 21.1468 -202.8059 -21.9231
N 11.1312 -195.9006 -13.4167
H 13.7421 -176.4706 -12.0425
H 4.6699 -66.6202 3.4578
C 4.9635 -2.3161 19.5754
N 0.3027 77.1069 17.9111
O -14.1659 150.2860 -0.0469
C -26.9296 191.9463 5.5878
F -23.4668 158.8647 3.6075
15

N -4.1754 3.9013 -10.4256
C -1.8770 2.6278 -5.0507
C 0.8979 1.0531 -0.3787
C 1.4946 -0.2012 4.7685
C 1.8108 -2.4724 7.1592
C 1.2359 -2.3937 6.9024
C 0.8212 -1.5050 4.4172
C -0.8979 0.1437 1.8210
H -1.9873 0.5982 -0.7042
H -2.0863 3.3703 -11.6305
H 1.1463 4.0428 -11.0699
H 0.6797 1.3306 -5.7697
H 3.6204 -3.5827 4.0901
H 1.0441 -3.3711 8.8536
H -1.7272 -3.5418 7.0175
18

H 141.7940 -0.9040 -38.3188
H 84.1475 -0.5737 -25.9942
F 52.7421 2.5444 -15.4634
N 2.7544 0.6974 -7.2821
H -51.3098 1.4818 7.5879
C -88.9159 -3.3170 24.5717
C -103.3745 -12.7307 27.7810
F -74.8139 -7.0660 26.2761
H -13.8910 -0.0392 15.5007
F 165.2597 13.0172 -43.5290
F 156.7580 7.8642 -49.6777
H 139.4077 5.1280 -37.2176
C 59.3256 11.1451 -33.6747
C 4.8831 10.1079 -13.6855
O -65.2496 -12.4967 14.1321
O -122.6264 -17.7058 37.2958
F -152.2778 2.9514 55.8306
H -134.6132 -0.1046 55.8670
16

F 22.9004 18.5610 -98.4278
N 9.5008 10.6751 -59.2148
C -10.5042 9.8033 -22.4406
C 2.5357 -6.6674 16.6156
H -11.8223 -24.9090 60.1430
N -13.7384 -23.3671 65.0403
F -12.7000 -15.7544 52.8500
C -20.4848 -12.4098 41.9954
H -1.9046 -0.0017 -14.6011
N 32.5231 17.5301 -117.5572
H 30.3522 25.7489 -105.3211
C 21.2520 30.4514 -71.7405
H -10.8278 0.2192 1.9196
N -8.2333 1.4299 46.2563
O -6.5879 -11.8293 86.6314
O -22.2610 -19.4803 117.8514
16

O 58.3831 27.4462 20.9824
C 34.8146 11.2192 10.3897
C 22.2249 0.6547 8.5453
F -12.6744 -7.0993 -11.1699
F -40.2748 -10.5586 -17.8563
N -35.5527 -15.2490 -30.1594
N -35.2097 -12.7063 -21.1353
F -22.7722 -0.4586 -14.7556
C 5.9489 5.7754 10.9298
F 69.1719 11.0970 26.6912
F 70.7752 15.5023 30.2855
H 45.1279 16.7323 25.0713
H -4.3032 10.3309 -5.8872
H -35.1029 -6.3612 -6.5435
N -58.0880 -15.5035 -10.5531
N -62.4685 -30.8215 -14.8348
14

N 12.9809 -1.1273 -12.0065
C 8.2898 1.8457 -5.9917
C 5.2092 4.1106 -1.2973
N -2.0548 2.6190 5.1174
C -10.1998 3.0212 8.8362
N -12.0017 3.2756 10.6261
O -11.7371 -0.6801 7.4830
C -9.0177 -3.6261 7.0546
C -4.3582 -2.3669 -0.2753
H 12.9477 -3.5780 -12.2437
H 10.4653 -1.5606 -11.5085
H 10.9917 -5.9243 -8.3889
H -1.8260 3.7954 3.6216
H -9.6892 0.1956 8.9730
18

F 132.3682 66.9051 -68.2246
F 89.7907 41.7508 -36.9503
H 51.6855 11.3967 -16.8880
C -3.4679 -13.2406 13.8298
H -68.2941 -49.2444 27.3188
N -98.1630 -48.8834 31.9915
F -86.5334 -26.4095 47.1784
N -75.1251 -12.8308 22.1789
N -21.8764 38.4589 -15.4402
N 152.3592 98.0604 -85.0065
H 137.9764 51.3028 -44.2064
C 138.1586 34.5526 -42.7990
H 84.4176 -8.3942 -7.3078
N 19.2562 -62.1870 45.2402
O -59.7611 -53.9795 37.3990
O -111.6945 -50.8407 30.4845
N -146.2503 -14.6088 36.9899
C -134.8466 -1.8085 24.2118
21

F 26.9715 34.4603 35.6598
F 17.5175 4.4971 29.3751
O 6.2684 1.5095 40.0429
O 7.0886 -6.3663 23.2040
C 33.0191 -12.2667 -15.1255
H 36.5730 -14.2552 -50.5568
N 20.5801 -9.7057 -61.6357
O -49.2011 -10.7622 -45.4571
F -146.1029 -7.7855 -6.1514
O 46.5939 41.0508 40.3078
N 55.0537 38.0623 71.8090
H 57.5057 10.5923 85.9493
O 11.7013 -30.1033 120.8271
O -21.1526 -31.6652 64.3510
O -27.6742 -20.9488 -2.6622
O -18.7350 22.9526 -51.3197
C 15.9882 64.3217 -153.4314
N 158.9935 78.4156 -213.8429
F 166.0665 60.3114 -181.1219
C 88.8155 -105.4491 95.2922
H -485.8705 -106.8656 174.4865
17

F 89.9373 78.0155 -44.1244
N 57.3321 44.9982 -24.7741
H 18.2669 23.9416 -3.8819
F -9.9357 2.3972 9.3965
H -49.9351 -28.4379 19.1259
N -65.0581 -44.6463 27.0521
F -50.5655 -44.7945 16.1076
F -32.5370 -46.6614 10.7999
H 7.5698 -21.2174 -1.6019
F 108.0373 93.1415 -49.9231
F 97.3811 89.0300 -43.7175
N 83.4067 63.4254 -32.6785
H 28.1111 36.3906 15.6494
C -29.5007 -7.3558 6.0412
N -77.3995 -69.4306 36.0388
C -98.8270 -91.5064 42.3068
N -76.2838 -77.2895 18.1833
18

H 73.0809 -96.6328 97.1216
C 40.0648 -58.9247 52.1625
H 29.2628 -40.0550 32.6531
N 1.1375 -21.1887 -3.2343
C -22.7001 15.9439 -40.3871
C -40.6722 61.1919 -67.3072
N -53.2078 62.3412 -73.0473
C -43.4378 60.9715 -38.9462
C -3.1606 32.1294 0.1779
H 79.8448 -97.6539 115.5268
N 76.1763 -109.0870 96.2919
H 63.3382 -92.0852 100.6030
C 8.7602 -55.2442 34.5181
O -4.1766 -17.3208 -10.7971
H -31.2623 35.5747 -49.4440
N -51.6910 82.9135 -81.1041
H -59.7067 128.1833 -91.7301
C -61.6504 108.9429 -73.0573
16

F 29.3368 50.0258 -9.3886
F 20.5461 31.2607 -6.2681
H 2.1176 17.6111 -3.1800
C -9.4036 -0.5719 2.6507
O -25.8496 -27.0918 1.0188
H -27.3693 -34.4104 -6.9105
F -16.7749 -35.7854 1.8963
C -13.5108 -19.8622 5.2744
O -0.0340 -2.9853 1.8282
N 42.8945 53.6216 -14.4034
H 45.8767 51.8787 -0.5811
N 33.2955 38.9854 7.4304
H 3.1743 5.6607 7.9274
N -13.3935 -31.7393 5.7002
H -38.6489 -46.7287 5.4515
N -32.2569 -49.8690 1.5538
19

O 86.1549 -26.1604 -236.7008
N 40.5624 -1.2632 -143.2163
F 48.0573 8.2414 -107.1036
H 48.3798 15.9730 -20.8005
F 6.1516 30.7125 79.5671
O -44.0086 9.4101 135.4949
F -79.1005 -5.5990 160.8651
F -91.7674 -23.9055 122.3144
H -66.4836 -28.7327 42.1058
O 78.3912 -17.3984 -237.7590
N 89.6131 -3.4526 -238.8161
H 96.4611 -2.6824 -218.3971
H 102.3391 42.7415 -117.5990
O 93.2776 44.4758 -21.2932
N 41.6657 62.5807 79.4166
O -39.9987 31.7318 174.8455
N -108.8014 -7.4094 218.6268
N -154.1003 -53.4293 216.6519
F -146.7934 -75.8339 111.7975
20

H 112.4234 12.9887 79.5935
C 72.1373 11.2472 48.5740
O 62.1589 16.8937 40.6857
C 37.7740 3.7465 13.3524
C -13.4074 -11.7216 -16.9536
N -61.8909 -7.3479 -42.8170
C -97.9726 -0.7995 -61.1817
O -106.7695 -2.7460 -56.2056
H -66.1649 -22.9219 -31.2662
F 121.7799 15.5003 82.9442
H 142.1108 34.6520 83.6474
F 154.6811 65.7963 71.9223
F 118.7904 49.0690 45.4765
H 59.3803 -19.5401 44.8386
F -28.1360 -86.9611 18.4113
N -92.2460 -176.0905 -25.2363
O -137.2438 -203.9250 -54.8647
H -135.9124 -100.1867 -92.4215
F -128.4836 51.2000 -104.8848
C -13.0091 371.1466 -43.6143
21

F 245.1842 29.1470 47.9763
C 128.1996 4.0976 18.6424
F 57.3050 -39.4043 -6.1233
F -17.0438 -102.6392 -55.7961
F -79.9769 -126.5860 -60.2519
C -112.7268 -95.8841 -9.5877
F -140.8106 3.8372 -38.2091
F -104.2749 155.2451 32.3124
C -100.7467 264.4555 116.7334
C 280.7018 11.0452 60.7877
F 224.9363 -10.3203 36.6046
C 128.1866 -50.8749 -21.7073
F -41.6672 -87.5097 -170.0688
F 9.4200 -173.0699 -166.8298
N -18.3004 -174.5442 23.9317
C 0.8653 -130.4331 168.8920
O -7.8486 4.8413 241.9950
H 39.8140 61.8803 132.1018
F 37.6865 125.4633 -25.0736
F -206.6213 -137.3161 -526.4468
F -322.2820 468.5692 200.1171
19

N 7.0634 226.3968 241.1361
N 12.2139 144.3131 148.8528
H 10.2294 105.4089 91.9985
C 7.8906 32.4057 11.8843
H 9.0543 -59.7196 -80.6145
H -1.7595 -130.3613 -150.1596
F -9.4174 -165.2270 -167.5339
C -18.3314 -148.1470 -131.0111
H -28.9204 -66.3833 -36.1219
H 5.5249 255.8419 271.3581
C 14.4748 240.4220 265.7050
F 36.5531 226.0876 242.2609
H 24.0202 130.7003 117.0151
N 23.0908 64.7091 24.7109
N 9.5036 -32.9230 -86.7455
O -3.2723 -146.1895 -176.5580
O -25.5849 -224.0465 -244.9063
C -25.9448 -256.6625 -220.5523
H -46.3884 -196.6255 -120.7185
16

F -39.6482 -86.5131 28.6744
O -17.7649 -47.3877 14.5875
C -12.0103 -14.4619 -8.5575
C 11.4173 27.2146 -7.7866
C 13.5032 49.8394 -13.0537
H 23.2165 65.4606 -12.6668
F 12.8471 61.3648 -11.9103
F -6.0956 45.5750 4.9350
H -17.8310 7.7476 1.0643
N -46.6726 -94.9736 26.4296
F -27.1924 -101.9156 34.2402
N -17.0893 -86.3368 27.7068
H 15.0485 2.1687 -5.1652
H 21.5741 47.3413 -33.9797
O 36.9209 77.1939 -24.3674
N 49.7767 47.6828 -20.1504
21

N 11.5398 -92.1019 -59.5949
F -5.6952 -64.6861 -27.3570
N 26.5193 -52.8590 -2.7344
O 59.6736 -58.2556 31.0068
N 66.0427 -11.9747 40.9659
N 35.1451 18.5343 27.8058
F -23.3552 59.4375 10.9175
H -92.0858 119.1659 -21.9843
C -134.4903 153.7144 -54.0045
O 3.3573 -105.1927 -64.0219
F 13.0949 -152.1325 -13.3178
N 2.6828 -160.6944 42.0516
N 40.1696 -73.2068 105.5144
O 111.6824 -38.5636 84.4772
O 167.1113 -9.3757 -13.0720
O 170.4873 64.2443 -126.8510
N 101.8929 130.5933 -202.6023
H -0.1411 86.5172 -119.2853
H -107.3923 70.8204 2.4265
H -212.8575 -143.5258 375.4911
C -233.3818 259.5413 -15.8315
19

F -84.9063 -121.7914 -224.2236
N -61.6596 -70.3501 -136.6385
F -37.7491 -50.7953 -79.4180
O 0.5011 -9.7382 0.0945
H 27.6733 30.7751 89.2146
N 52.2238 75.0349 140.0385
F 64.6485 83.4993 134.3412
N 52.5716 64.4043 88.7654
H 28.7177 30.4079 0.2348
O -100.3883 -122.1861 -233.9872
F -107.2593 -128.3940 -230.2453
C -112.5449 -117.6352 -202.5740
N -42.0633 -54.5064 -68.4234
O -10.9733 -23.6151 40.7895
O 26.6591 31.4448 122.4493
O 61.5033 83.8005 193.2470
O 89.8320 115.3474 192.8065
F 85.6316 107.4700 142.8435
F 67.5820 76.8275 30.6852
18

H 142.1809 -62.4361 16.6604
H 78.4717 -40.6673 5.3999
C 52.7085 -17.9987 3.3323
N 5.7797 -5.5328 -6.2521
F -51.4010 16.4448 -15.5780
H -81.4183 29.9721 -7.0238
C -97.8967 39.6710 -5.9707
F -79.5294 24.4239 3.3418
H -27.5880 16.9622 -0.7068
F 159.5945 -58.8088 10.7558
N 152.1553 -59.9223 -1.3743
H 133.9767 -49.7252 13.3111
C 44.2242 -16.5623 -11.7432
O 2.4654 7.5432 -7.5545
H -57.1233 23.4883 -0.7236
N -115.5589 39.0254 10.5077
F -141.1405 62.6025 -9.1390
C -119.9006 51.5203 2.7573
18

C 72.7649 50.1802 -212.5627
N 48.4793 28.5111 -136.5235
H 28.7419 20.5341 -80.7455
N 7.1654 8.6672 -8.4086
H -31.6686 -18.7073 80.2940
H -49.5241 -22.8421 137.3350
F -43.8983 -38.5436 150.9732
C -37.6590 -36.1989 111.7482
O -3.3284 -8.6653 22.8896
N 82.0499 50.5106 -230.8885
C 76.4828 55.9199 -230.3872
C 64.3316 55.2931 -206.1911
O 22.7248 26.7831 -92.2618
N 2.6902 -5.6339 10.5351
C -39.5730 -21.7587 115.7188
H -68.9398 -39.9445 194.0529
O -74.8413 -55.6223 197.9052
C -55.9981 -48.4827 176.5169
15

N -23.1930 18.5259 16.4634
C -11.2439 7.3571 8.8480
C -2.2128 0.3172 2.4301
O 10.2477 -1.1396 -0.0409
O 18.1117 -5.4146 -3.6973
N 20.0587 -10.8019 -10.4130
F 14.4239 -14.2815 -6.2514
C -3.1036 -9.5600 -9.1273
C -14.8322 -0.2517 -6.9141
H -29.2759 22.1030 22.7279
C -17.1378 25.8824 11.9712
H -16.3412 13.9068 2.0624
H 13.0639 -6.2273 -4.4956
C 24.1717 -23.0845 -11.9900
O 17.2626 -17.3312 -11.5734
22

O 34.1800 -228.8771 -120.0460
C 27.3452 -132.0857 -42.3247
H -27.0678 -18.0310 -31.2323
O -194.7918 92.5326 -9.1326
F -235.2830 102.2747 62.9722
H -240.9235 25.1204 53.2371
N 13.2559 -36.6588 8.2543
F 346.1847 -49.1702 25.8841
C 379.1183 -79.9298 55.9431
N 37.9127 -338.2555 -113.6455
N 8.7149 -162.6195 -123.1635
N -195.3740 -134.9877 -60.2467
H -176.2715 307.5119 54.7025
N -208.9855 310.4933 138.0222
O -237.4652 268.7538 -17.7552
C -361.3836 330.6961 2.8631
F -163.9323 138.9573 -262.3038
C -22.7981 -151.0539 -94.4075
H 361.5505 86.1799 72.8341
O 145.7350 -580.3314 504.2131
H 283.3031 -14.2539 49.1105
C 426.9758 263.7346 -153.7785
21

F 10.3850 28.6803 -43.5814
F -11.9121 -0.1281 -11.0661
H -73.9410 -44.1012 5.1272
N -115.3315 -85.9618 -13.2897
H -95.9241 -97.8061 -28.5834
H -19.2410 -102.3736 -22.5250
C 87.1024 -10.1431 -56.5002
F 155.2330 142.7423 38.0458
H 138.9893 239.7639 98.1648
F 22.2203 10.6019 -45.5736
F -21.1160 -14.0753 -5.3304
N -101.1999 -61.6448 59.3358
F -189.5862 -85.0238 49.7691
N -213.9643 -146.5501 -23.5509
C -203.5408 -172.3997 -42.4748
N -175.2395 -93.4012 -126.4313
F -25.0896 26.7875 -193.3384
N 246.7159 109.1012 -144.8938
H 424.9619 171.8958 -71.2007
O 253.7975 -131.9737 194.0557
F -93.3195 316.0099 383.8411
19

F -90.4647 -77.3472 33.5900
N -40.6459 -38.7922 9.1581
H -35.8259 -31.0579 -37.2989
C -3.9901 -8.8655 -65.2267
H 33.7213 10.3891 -86.0516
H 50.7453 36.8605 -24.1234
F 54.3357 49.5231 32.2058
F 37.5088 45.8385 81.8231
C 14.9145 6.5890 98.0580
H -84.3699 -81.1696 43.9253
C -87.0049 -83.5909 5.5383
O -75.1674 -75.4293 -17.9745
F -34.3448 -36.0184 -109.8761
N -4.3003 0.4852 -154.2648
O 45.2648 38.0381 -175.3291
N 71.4243 70.2772 -86.7628
N 76.8200 82.8392 39.9010
F 69.2386 68.6886 165.2058
N 2.1404 22.7424 247.5024
18

F -13.2549 3.1917 167.7787
H -2.3300 5.6496 102.3689
F -5.0018 8.4364 57.6802
C 4.4230 3.8653 -5.1233
H 10.7153 -3.0997 -71.7563
H 11.0993 -1.9724 -103.3724
F 4.5768 -9.2605 -106.2987
F -3.0523 -7.2497 -74.2072
C -11.8337 -6.3199 -15.9109
O -14.1180 4.7347 179.5400
C -8.0437 1.8989 171.5284
O -6.8322 4.5192 153.5070
H 1.6794 12.3204 61.2057
O 10.1914 9.7900 -11.4143
O 0.1122 -0.7926 -86.0379
H 11.5834 -9.1352 -140.6721
O 0.5403 -7.7512 -153.7313
N 9.5457 -8.8252 -125.0845
20

F -231.1685 -50.2426 82.5622
F -140.4735 -39.8735 47.5773
O -107.8467 -46.9308 21.2451
C -51.2801 -34.5659 -5.1893
F 23.9948 -10.8290 -32.0985
N 120.4965 33.3964 -47.7406
F 185.7604 53.6679 -57.6492
F 175.3271 72.4078 -51.7957
H 60.5536 62.4893 -8.1426
H -245.3265 -58.4802 95.1355
C -207.0820 -70.3655 87.1108
F -149.4506 -72.6181 63.5658
F -80.7130 -80.3409 7.8131
C -90.4846 -80.0592 0.6343
O -88.4975 -38.3665 40.0075
C -102.1869 30.9871 84.5078
C -74.9765 106.0984 68.2666
C 110.0442 131.6877 -24.1148
F 310.8853 101.3496 -116.4013
H 582.4246 -9.4118 -255.2941
19

O -115.2945 100.8032 -23.3843
C -74.1673 65.5053 -7.2505
F -52.3502 51.0427 20.6202
N -17.7547 23.4217 32.0427
H 34.8139 -18.8053 29.3980
N 70.0200 -52.9068 12.5756
F 87.9229 -77.5424 -19.3164
F 75.5250 -76.6117 -36.3089
H 35.0180 -42.0701 -45.9413
O -127.6311 116.6458 -16.9769
F -132.5255 115.3956 -0.8143
H -128.6966 111.8155 12.8745
C -66.8902 63.9842 58.0052
O -36.7985 41.2038 76.8141
O 18.9114 -8.5783 66.8682
O 77.2381 -63.1810 43.7646
N 119.3099 -116.9712 -19.9536
N 131.2203 -139.7592 -75.6426
N 102.1289 -93.3921 -107.3743
18

H -47.4318 131.6655 81.7244
O -25.0311 86.4784 47.3921
C -17.8991 56.2480 21.7987
F 9.4109 9.4763 -0.9411
O 26.7490 -46.8702 -32.5623
N 28.5619 -87.7356 -63.5606
N 29.1465 -99.3553 -58.9184
N 15.0140 -82.0549 -42.4604
C 4.2056 -29.1189 -2.5248
F -60.1926 155.0031 91.7568
C -56.8098 153.9182 91.9292
H -42.4725 145.0243 86.0611
H -20.3792 53.8121 44.8594
H 8.5241 12.3246 -4.0866
C 17.0079 -64.7004 -44.9950
C 43.2311 -118.0593 -77.2683
O 46.3217 -139.9921 -80.0357
H 42.0433 -136.0636 -58.1686
19

O -163.6662 168.9119 -22.7759
C -103.7360 107.4050 -15.3028
C -81.6698 81.2672 -24.4196
H -27.7225 23.0138 -23.1142
F 40.5842 -42.1796 -17.6423
H 91.7727 -97.0915 3.8354
F 126.0864 -126.5376 28.7453
F 117.8759 -113.4432 44.7211
C 62.5354 -59.3402 43.3469
O -179.2909 190.4769 -23.6987
H -194.6958 187.4776 -27.7239
F -184.8315 178.2113 -32.8725
N -105.0436 95.3956 -45.9550
O -53.2032 44.8191 -56.6774
N 15.6348 -23.4017 -48.9945
C 111.1216 -106.4616 -8.6230
O 169.3713 -171.7047 39.1472
O 195.7692 -187.9618 87.9300
H 163.1079 -148.8565 100.0739
16

F -17.6385 8.9818 180.7572
N -1.1684 5.4237 116.6194
F -22.8512 -2.3203 42.7405
O 16.9499 -22.0158 -25.8659
H -2.9639 -49.4087 -86.0411
H 2.0120 15.2661 -130.0679
F 22.5330 -0.7038 -124.0328
N 17.5051 -7.1712 -55.3430
C -27.0243 9.9324 6.1743
N -30.2686 35.5579 198.4199
H 12.3084 13.4151 161.2906
H -42.0783 11.3660 177.3353
H -6.6898 17.1982 17.4631
O -1.5229 5.1943 -140.1007
O 54.1304 -27.2958 -170.5875
H 26.7672 -13.4198 -168.7617
18

O -90.6222 -28.1445 -10.7034
F -55.3820 -18.4352 -5.0575
C -41.0956 -14.0006 -0.7095
N -11.0077 -0.7905 -1.6855
C 31.3277 5.9123 0.2664
H 66.6954 22.6648 7.5955
O 68.1290 20.4601 3.4678
F 54.3209 10.8488 -0.7416
H 18.1659 -2.8413 -0.7035
H -93.9135 -24.8084 -18.9859
F -104.0234 -24.1194 -10.5704
N -101.0659 -25.9618 -1.0805
N -41.6586 -11.1729 5.7805
C -5.9070 12.8870 16.0795
N 39.7955 14.1069 5.3385
O 75.4994 16.1551 15.3480
F 99.5926 24.8986 -1.4193
H 91.1494 22.3412 -2.2191
20

C -168.9084 -78.6773 -10.8573
N -102.2723 -45.5856 2.5824
H -87.5350 -34.9885 38.7163
C -30.4540 -10.1480 40.8154
H 33.1162 3.6950 23.4929
C 97.6982 44.0162 2.9212
F 132.7447 70.8189 -26.1694
O 124.6974 65.4459 -45.7383
F 75.2963 27.3935 -73.1116
F -189.5475 -88.1233 -16.6404
H -191.3898 -88.4021 21.5910
C -180.1141 -55.4967 72.2722
F -104.9164 -26.7486 123.7516
O -97.4100 -48.1646 110.8510
F -16.3070 -77.6414 -0.9432
N 82.9999 -67.0506 -114.6008
O 188.7674 -32.2645 -210.9307
C 241.2311 55.5433 -171.8349
H 206.5294 167.3376 -69.3660
F -14.2261 219.0408 303.1985
15

N 4.5259 6.8221 -44.5350
C 5.2506 3.3772 -24.2803
C 3.6568 -2.3290 -4.5627
C 3.5689 -7.4570 20.3520
H -1.7655 -7.8120 38.0712
O -9.8577 5.5422 37.7426
F -9.8300 7.4085 22.3711
C -1.1582 0.9742 8.4319
N -0.7946 -7.4013 1.6832
H 2.8746 12.8909 -43.8632
H 3.1212 -1.1820 -48.2502
H -1.2783 -10.4517 -35.4730
F 13.4523 -15.4223 2.1881
N -5.8653 4.5010 33.7504
O -5.9007 10.5392 36.3739
17

N -39.4647 52.1488 -43.6378
H -22.0352 32.4684 -28.0535
O -12.0600 12.4567 -3.7545
N -0.0594 -4.6404 4.0115
C 22.1018 -23.4557 10.1559
O 26.6896 -41.2348 36.3067
F 24.6085 -31.0642 24.6359
F 15.0603 -28.2055 11.9557
C 4.4869 -4.0194 2.1656
F -41.0875 48.2677 -42.8090
C -40.6144 62.1247 -39.1015
H -49.7101 50.8704 -42.9773
H -5.0560 17.0799 8.5113
C 15.2357 -12.6164 9.8094
C 25.7731 -31.1570 32.8099
O 42.3507 -48.8608 35.6298
O 33.7807 -50.1624 24.3419
17

O -35.9800 -30.9684 -59.0180
C -25.5791 -17.5735 -30.9539
C -11.9615 -10.0292 -19.6291
N 4.0905 -0.5235 11.2886
F 19.8582 11.9803 23.5424
O 31.3617 20.6646 32.3040
F 25.5900 19.8577 30.0282
F 11.9601 11.5773 18.2783
H 2.1924 -2.6403 -0.0492
O -43.0705 -26.9474 -51.1265
F -43.8655 -24.3383 -48.9115
N -35.7377 -17.1697 -41.3330
N -5.5073 1.2391 -7.3032
O 6.9696 8.9266 16.7103
O 27.4124 16.0629 36.2832
O 39.1714 17.5466 52.0799
N 33.0951 22.3352 37.8093
19

F -32.5248 -31.1474 -50.4007
N -17.3187 -14.2398 -29.5300
F -17.0442 -9.7105 4.7380
N -0.4063 -0.5655 32.3265
H 11.1367 8.1116 44.8850
H 22.4065 17.4410 37.3622
F 28.6498 22.6927 5.9271
N 18.4275 14.5596 -20.5417
F 14.5290 12.3914 -46.7018
O -35.0278 -26.3954 -55.8263
F -38.4948 -36.3479 -40.7577
C -44.1508 -23.8460 -28.6069
F -15.4841 -13.5046 42.9221
O -11.8478 -6.9774 88.3350
O 2.2818 0.0142 94.8425
O 18.4757 17.3925 75.6847
C 23.5781 32.1926 11.8758
H 34.7353 20.6209 -55.3052
F 38.0789 17.3179 -111.2285
16

O 9.2042 68.8096 32.1990
O 7.8200 34.6538 18.6204
F -2.5954 10.0213 1.9960
C -0.6056 -6.1716 -11.2106
O -3.9324 -32.3100 -11.5580
N -1.1928 -40.0878 -29.4928
F -0.3477 -33.9313 -28.0718
N -5.8597 -20.3760 -0.6453
C -7.9742 -4.2932 8.3222
N -6.2945 75.9603 36.3798
F -7.5291 60.8415 34.2930
H 6.9850 39.4022 42.6958
H -3.1321 6.8075 13.5794
F 7.6139 -51.0764 -28.3062
O -0.4063 -55.3934 -39.7256
N 8.2467 -52.8566 -39.0754
20

O -12.0171 -187.4484 15.1339
N -9.3674 -112.7279 13.6403
F 3.9282 -77.6514 16.1001
N 8.8813 -31.5639 16.7463
C 5.7408 42.3444 0.8367
H 4.1369 104.4138 -17.1036
C 4.6884 141.2210 -19.6563
F -1.0035 128.3417 -24.3875
C -11.1990 64.9965 -23.7263
O -18.9415 -196.4423 17.8911
F 3.7628 -204.0001 28.2624
N 16.4661 -181.9503 31.9383
N 34.6165 -100.0206 47.2973
O 13.5268 -67.5693 46.2394
H -20.1692 -13.1844 13.2107
O -64.9094 51.9736 -9.8556
N -76.1307 125.3881 -46.7413
H -35.9271 175.0488 -62.1122
F 11.1731 194.6729 -66.5357
H 142.7441 144.1578 22.8222
14

N 12.5289 7.1668 -18.6869
C 8.5336 5.9575 -10.2381
N 5.2708 3.9397 -1.7377
O -0.2676 -2.4989 9.2286
C -8.8785 -1.7670 16.4568
C -12.2899 2.5275 15.9501
C -11.4611 -1.6508 11.9690
C -9.4348 -5.9543 8.3119
C -5.7875 -2.9378 0.5733
H 10.4133 7.9445 -17.0234
H 9.8519 1.7799 -20.2112
H 12.5792 -8.6493 -11.9844
H -0.6832 -2.0553 3.4878
H -10.3751 -3.8026 13.9042
19

F -58.2339 62.1021 -33.8791
N -26.4866 38.9895 -13.0089
H -28.3755 25.7203 23.0221
C -15.7936 7.3095 38.7294
H 7.4900 -21.0153 43.7355
F 23.7868 -38.6063 22.4622
F 47.2629 -41.0833 -7.6955
C 39.9338 -39.8263 -39.8316
N 27.9290 -5.6288 -54.5294
N -58.8088 71.0928 -42.9299
F -63.2146 72.0465 -24.8758
N -56.3683 72.1821 5.2891
F -36.5806 28.8438 67.9193
O -29.5461 2.2291 93.4520
C -9.9265 -38.9561 93.7726
N 21.2713 -58.3401 63.0867
C 44.4439 -65.1715 -16.3850
C 75.6343 -58.0043 -82.0603
F 95.5823 -13.8837 -136.2733
17

N -75.0312 56.0528 -53.5902
C -39.9022 40.4336 -40.5295
C -8.3172 21.3243 -13.9345
N 15.9066 -9.1158 4.8784
C 36.7368 -29.8491 17.3463
O 39.2537 -52.2300 49.0224
C 31.0445 -37.6858 37.4501
F 15.2757 -28.0968 11.8595
C 2.7870 -0.5624 -8.7649
F -76.2427 48.9088 -52.7645
F -65.5860 71.1125 -46.1551
F -81.2559 51.4314 -58.9882
F 3.6378 34.1473 -12.0762
H 53.2230 -3.5570 22.3933
O 48.1186 -50.2673 50.8804
N 65.5729 -58.8233 49.0684
F 34.7785 -53.2232 43.9043
19

F -15.7811 52.8776 -226.4120
C -19.2132 42.7528 -140.1820
F 8.5321 36.8603 -97.4531
O 33.3503 12.8496 -2.0102
H 25.1065 -5.9873 89.9815
N 12.6656 -30.7360 150.2218
F 0.7368 -49.1972 142.7972
N -26.1196 -54.6132 90.3550
C -27.0532 -32.2446 12.1874
O -24.4368 74.5253 -255.1569
F -10.3360 67.3095 -243.2249
N -7.4403 63.2461 -215.0282
N 27.7813 62.8757 -80.5603
O 43.4021 34.2060 35.1128
O 39.8848 22.7281 135.5152
O 20.4227 -25.0419 207.4720
O -4.8677 -74.0410 210.0744
N -32.6595 -105.6133 157.7633
F -43.9747 -92.7565 28.5468
18

C -57.6296 62.1954 -75.9216
F -34.8584 40.4097 -44.4941
H -24.1362 21.6621 -32.6346
N -0.9827 -3.2790 2.4128
C 21.4742 -23.3534 28.6428
H 45.8399 -34.6735 48.7467
O 41.2024 -55.2505 48.2593
C 32.4079 -31.6399 41.5022
H 22.1067 -10.7207 7.9196
O -54.2761 82.2024 -88.7137
F -63.1052 78.4522 -81.5618
N -60.8438 70.2246 -61.1092
H -36.6249 24.0158 -20.8530
C -5.9615 1.2985 14.5272
O 8.2757 -25.9999 42.1925
O 49.4956 -53.7643 63.5788
F 59.5485 -74.7590 62.5367
C 58.0674 -67.0205 44.9695
20

C -39.4887 -66.4929 -162.6674
C -23.5245 -41.0791 -100.9342
C -6.4294 -23.4002 -78.3277
O 18.4634 -1.1411 -27.5655
C 30.9204 21.2895 38.4613
O 24.7334 41.5592 96.2260
N 7.8913 47.5069 124.1361
C -5.5109 35.0851 112.9883
C -5.9971 2.3757 59.1538
O -44.4495 -76.0431 -173.0533
F -53.8859 -66.5251 -181.4156
F -58.8025 -52.2068 -179.2224
F -5.5632 -11.6714 -114.6836
O 37.2134 0.6189 -61.8426
C 74.7636 12.7602 0.4355
N 111.0332 22.1510 83.9474
N 113.7096 20.2952 157.5096
N 41.8522 41.1029 194.2061
N -43.0744 40.5494 177.2169
C -173.8545 53.2659 35.4314
19

O -105.6084 -51.7881 53.0090
C -65.9766 -32.4998 36.4867
C -47.9817 -22.9088 35.2023
C -15.1952 -7.2537 20.6547
N 27.2795 15.0120 -5.4297
O 62.0163 35.6486 -32.4047
F 76.3507 39.6870 -51.6554
F 69.1263 28.7160 -53.8557
C 33.1891 9.5762 -32.1321
H -112.9679 -57.8466 57.3020
C -117.1378 -58.0846 64.8524
H -109.9275 -52.2351 65.9096
F -57.6587 -28.3977 60.0656
F -30.7275 -8.9458 45.0883
H 15.9246 10.3806 10.9713
F 69.0318 35.1069 -30.5113
H 105.1360 53.7473 -70.7799
N 116.7146 53.3810 -94.0355
C 88.4123 38.7047 -78.7376
17

F 29.0746 17.3949 138.1107
C 14.7000 15.8772 79.2190
F 3.7681 18.8252 38.3055
C 12.0288 1.6126 -5.4823
F -8.7973 -15.6379 -71.7091
H -13.1171 -10.4545 -92.9216
C -21.4802 -13.9343 -87.4273
F -15.3168 -8.4021 -60.6673
C -5.1076 -5.4682 -5.6828
N 21.9017 31.5270 161.3239
H 19.6884 21.9114 136.8625
O 24.8160 25.5131 117.8320
H -3.3032 -1.7629 31.6155
O -12.2577 -2.7098 -54.3083
O -20.5403 -25.1085 -100.1420
N -5.0989 -31.4387 -120.2313
O -20.9586 -17.7445 -104.6970
18

F -96.1195 172.3457 -30.4076
H -60.6419 112.4780 -26.3104
O -30.0073 73.7355 -15.8529
N 9.2411 11.4827 5.4971
C 47.4845 -61.4136 20.4283
N 60.9280 -106.9888 7.0471
C 62.8988 -129.0121 13.2501
C 35.8848 -102.6834 3.6080
C 7.2891 -36.8815 5.0779
F -102.3225 217.9684 -31.1582
C -110.6362 199.0065 -23.5479
H -93.9276 183.2879 -8.9094
O -45.7168 62.9065 20.1795
H 16.6811 2.4067 -0.5222
O 47.4357 -73.1721 7.9501
O 90.4761 -144.0740 17.8418
F 84.2394 -194.8647 9.5295
F 76.8131 -186.5277 26.2992
15

C -19.4024 -12.8091 5.6790
C -9.2197 -6.7297 2.7886
C -1.6328 -0.4752 -1.4397
O 3.8190 3.9357 -3.1660
C 8.1816 5.4931 -3.0369
C 7.9118 8.6425 -2.6076
C 7.3516 8.6468 -2.2250
C 7.5987 7.0238 -2.9997
H 5.2724 -5.2807 -5.0768
H -22.5090 -14.1545 9.3034
N -17.0003 -11.3750 6.1843
H -11.4638 -14.9276 3.3617
H 2.4619 6.6946 -2.4613
H 21.4631 15.1233 0.5736
H 17.1679 10.1921 -4.8778
17

H -48.1421 -53.7963 -32.8640
H -27.0842 -31.3032 -18.1413
C -9.8941 -15.9797 -4.9991
H -0.5536 5.6592 3.8702
F 22.4122 25.7601 12.4830
O 30.9401 34.6903 19.6474
F 29.7382 37.3517 11.3806
F 20.4942 20.9420 7.0466
N 6.2402 9.9854 -3.2435
O -52.4124 -52.8078 -27.4432
N -53.4228 -57.0522 -29.6161
H -53.3404 -56.0393 -30.6780
H -2.7091 -21.7908 1.1271
C 13.5237 10.0169 20.3464
N 33.0971 30.9800 19.4191
O 48.6712 61.0060 34.3287
N 42.4419 52.3777 17.3362
16

C 41.1142 1.4655 -14.8825
C 20.7654 0.2968 -8.9934
C 5.8106 4.4533 -4.7806
F -3.1076 0.6865 -0.0607
O -25.9919 -0.1008 5.7565
N -30.0710 -1.2598 2.6506
O -16.0619 0.5130 5.0308
F -13.0962 -1.8004 4.7348
H 5.0046 1.3665 -2.3868
F 51.3270 -1.2512 -13.7248
F 43.2749 3.3758 -8.6594
N 32.2890 0.9808 -9.6196
H -3.0938 9.3178 0.3291
C -22.5282 1.8034 0.5688
O -42.7811 -7.8703 20.0892
H -42.8540 -11.9768 23.9480
19

C 148.9176 4.9245 -18.2694
N 100.4948 1.4470 -8.8193
H 54.0534 -1.3242 22.7054
N 8.2171 -2.3679 31.2164
H -58.6424 -12.9481 39.9174
N -100.4560 -10.2103 22.5588
F -93.1654 4.2514 -15.7866
C -70.2819 5.5523 -47.6189
H -12.0808 23.0000 -58.0966
N 161.6264 7.0318 -28.9374
F 156.1517 9.4442 -14.7597
C 143.0204 8.4742 14.4903
O 61.1291 0.6581 61.7659
N 7.9297 -22.9121 90.8969
C -65.0064 -42.5749 97.6814
N -130.8392 -32.0626 64.6388
C -155.2233 -12.4802 -21.7849
C -119.9156 20.1661 -78.5970
H -35.9292 51.9307 -153.2014
18

F 5.0589 226.0413 -68.3099
H 1.4204 145.2354 -40.3351
N 8.9147 90.4756 -17.3412
N -7.4199 17.2624 9.5904
O -1.9953 -82.3828 39.5405
H -12.6276 -144.1136 40.6418
F -4.9597 -175.5279 27.5387
C 7.0561 -126.8587 15.7372
H 4.2341 -42.8153 3.7135
F 3.2156 275.6700 -64.2538
C 0.7777 258.9685 -51.8038
H 4.5982 235.6196 -22.5559
H -9.0590 92.9149 14.9249
O -2.0477 -9.4172 6.4541
O -16.1732 -112.1852 20.5542
H 0.7881 -201.1363 28.7431
O -2.0022 -238.1140 27.2323
C 20.2208 -209.6366 29.9290
18

F 195.0619 23.5249 -183.0779
N 128.7564 14.0951 -108.0940
H 79.5878 9.1343 -56.7082
H 10.1139 6.3309 15.1004
H -75.2129 -15.7426 75.3726
C -125.2308 -34.3988 114.6420
F -137.8156 -26.4933 115.8138
N -112.6737 -14.6721 62.5924
H -44.2314 4.5267 9.4701
N 213.5411 35.9015 -209.1677
H 210.6720 51.6649 -197.8338
H 208.7565 49.5893 -160.9043
C 94.6010 33.1193 -68.1773
O 13.3753 4.3090 9.2553
O -67.5981 -36.6352 108.8652
O -182.6215 -50.5907 177.9543
N -225.4521 -36.6244 157.5198
C -183.6298 -17.0387 137.3775
17

F -38.2590 -118.0561 45.5861
O -18.2291 -74.3334 27.7710
H -15.3749 -41.3919 20.0354
H -1.1533 8.9805 -17.4192
O 15.2522 47.7160 -29.6520
O 27.3443 80.6774 -20.9326
N 22.2596 85.2301 -21.9791
C 7.9158 67.1902 -18.2250
N 9.1065 31.1128 -6.2410
O -29.8295 -132.6553 45.3320
N -52.2764 -131.0833 50.4126
H -41.8308 -139.8647 50.5317
H 7.0572 -40.2006 13.3832
H 27.2656 3.5796 -15.7201
O 14.1585 81.9807 -25.8301
C 37.1616 139.3169 -47.6905
O 29.4318 131.8011 -49.3624
17

O 45.3819 22.5473 26.0582
C 26.0072 10.7392 14.8373
O 16.3753 4.8332 6.5860
N -1.1050 -3.8447 -2.6885
F -20.0262 -10.4657 -12.0197
C -28.2279 -10.9481 -15.7544
C -30.5201 -7.6743 -17.2048
F -22.8818 -5.6715 -13.8796
H -5.6543 -0.1167 3.1149
F 49.7240 23.1556 31.3514
F 47.6245 18.7121 26.3851
N 38.5266 14.9109 25.5659
H 13.3606 -0.3581 0.0292
H -9.6919 -10.3913 -11.6158
N -33.6656 -16.7290 -19.5665
C -42.7458 -18.5060 -22.2681
F -42.4816 -10.1929 -18.9307
18

N 11.4197 -20.9157 -52.2567
N 7.7240 -13.7459 -32.1361
F 0.5636 -12.3766 -15.4507
O -2.3226 -4.4013 9.4905
O -9.4452 5.1421 26.3409
N -10.4776 13.5849 33.8247
F -3.2011 21.3322 28.7046
C 0.2523 16.2593 13.9389
C 8.1936 5.4746 -9.6600
H 13.4012 -19.9602 -60.6541
C 12.3665 -22.3411 -55.1757
H 4.7912 -21.5762 -46.3333
H -2.7104 -15.8735 -2.8297
H -4.6441 -11.6654 17.0003
O -6.8868 0.9017 41.7837
O -7.6642 13.7598 47.4107
O -7.8330 33.6849 37.0755
F -3.5272 32.7166 18.9266
17

F 64.9511 22.1640 -4.4661
C 35.3942 9.3183 -0.4215
C 15.7497 2.1537 1.4759
F -5.5265 -2.6994 2.0367
F -31.3313 -7.7234 1.0263
N -44.7526 -6.6528 5.0758
C -41.0272 -7.3192 -1.6086
F -30.8997 -6.7956 -5.2436
H 4.5190 0.5473 1.7771
F 74.3940 25.0462 -3.0100
F 66.8304 19.1005 0.9173
N 50.5279 12.6088 -2.7692
H 19.6023 -0.3494 -6.4380
C -16.1586 -8.9451 0.5686
C -44.2868 -15.8064 4.3272
C -59.1115 -18.4460 5.2878
H -58.8745 -16.2014 1.4642
16

N -9.8458 -0.9450 -6.6285
C -5.6840 -0.7852 -3.8466
C -3.2778 -0.2396 -0.1177
C 0.7956 0.3065 1.9338
C 5.4446 0.1273 3.1275
C 7.0741 -0.6313 1.7881
C 5.6406 0.0985 2.7295
H 4.3757 -1.0034 1.9013
H 0.6091 -0.8419 -0.3479
H -10.1931 1.1963 -5.3542
H -7.1306 0.7946 -3.2592
H -7.0776 1.6066 -0.6353
H -0.8718 0.7243 1.0547
H 3.3478 -0.1283 1.3905
H 7.2156 0.8746 3.1989
H 9.5775 -1.1538 3.0652
18

C -57.1106 183.1868 68.4984
O -30.3340 119.4972 27.1581
O -24.4529 85.4827 7.6977
F 21.6455 13.3771 0.3466
O 34.3833 -69.4459 -22.0655
N 31.7952 -122.9873 -56.3028
N 29.9124 -139.3445 -44.1906
N 20.7529 -112.8754 -32.4712
C -4.4649 -35.0479 1.7081
H -71.6753 223.0302 79.7261
C -72.7380 221.1300 75.0998
H -56.6187 200.4650 84.8478
H -25.9276 85.2078 27.5312
O 26.6510 24.4339 -21.8239
O 44.1170 -90.4191 -52.0462
C 51.2435 -167.7819 -65.5894
O 39.3148 -215.8385 -60.9764
F 43.5062 -202.0701 -17.1477
17

F 17.2550 20.2057 -61.6413
H 14.1508 12.3812 -35.8573
H 6.4136 3.9555 -14.0131
C 0.6324 0.3430 8.6865
H -9.2928 -10.5685 30.2419
N -12.5195 -9.9772 41.4053
F -11.5327 -9.4434 38.0399
C -10.7407 -8.5934 25.9871
N -1.7555 -0.2088 1.4656
N 17.9147 26.0900 -66.0887
H 16.4453 19.6634 -70.7841
C 15.1729 13.7188 -57.6819
F 10.5906 1.2591 -9.1525
N -2.1024 -3.6686 26.1305
O -12.1831 -15.7124 46.8037
O -17.4283 -20.1346 53.6105
O -21.0202 -19.3095 42.8479
19

C -125.2988 68.0244 -2.9007
F -61.3290 47.4350 -10.3097
H -36.8983 34.3932 -38.8269
C 3.5659 21.0184 -47.6622
H 48.9541 -10.1781 -48.7473
H 73.8628 -35.9292 2.0944
F 73.3796 -55.6110 39.4606
O 38.9578 -59.2160 67.2027
H -11.8566 -48.7114 83.8991
H -128.1591 75.4149 13.2068
C -124.0044 77.7723 -21.6021
H -96.7017 64.9769 -48.4622
F -21.1928 64.3617 -111.9517
N 33.1874 51.4150 -125.3436
O 71.9759 18.9046 -110.1386
O 97.8975 -23.5915 -35.3392
N 84.0906 -73.8052 46.4626
F 71.4937 -96.9449 148.8655
N 8.0753 -119.7292 200.0925
23

F -285.6838 -167.9327 105.4362
F -97.6485 -88.9891 73.2060
C 147.9034 94.1368 -9.3196
N 315.6895 -100.8490 82.3775
C 260.5405 -112.3988 -28.1363
C 93.5064 -94.2078 34.6709
C 97.3182 37.6550 24.4036
H -417.8920 174.1488 -156.4613
C -617.7344 117.1178 -94.4157
H -224.7397 -273.6097 -123.0573
C -111.6133 -151.0819 -63.3065
N 66.2597 146.4756 -140.4007
C 353.2087 8.3303 100.4122
N 144.1058 -366.5859 290.6292
O 413.6955 -850.5317 -134.6663
O 110.1589 -105.0471 -86.1429
F -370.4985 351.6415 -46.3939
O -422.1327 251.0218 -150.2342
N 124.9365 -179.9748 -78.1851
N 687.2957 614.5856 291.6094
O -580.2921 187.8064 85.8039
H 199.5457 578.6688 129.2198
F 114.0703 -70.3797 -107.0488
21

O 57.6216 166.4771 328.3009
C 4.4909 120.1396 217.9788
C -87.8164 78.4721 171.6232
F -152.4308 2.3202 -4.0646
F -180.8052 -50.8779 -137.8292
C -118.3898 -110.2536 -209.6755
F -5.7310 -138.6790 -294.5731
F 205.7546 -58.4617 -185.1194
C 418.0567 6.7273 -17.8278
H 47.8490 126.1937 376.5978
N -82.6954 149.8703 397.0066
N -236.4904 171.9983 369.8250
F -290.4020 149.5736 225.6474
N -235.2051 60.6342 67.3398
N -162.1386 -78.4382 -164.3498
C 150.1324 -169.7795 -435.1509
F 352.6900 -195.7856 -525.9620
O 340.1621 -185.5297 -404.7416
O 198.7961 -90.7243 -125.3642
O -729.1973 -111.9370 192.8589
O 505.7487 158.0604 157.4796
19

N 47.0878 15.0545 -259.4327
F 32.3715 8.2167 -172.7424
H 24.5419 5.3752 -147.5860
C 12.0501 1.4740 -69.5631
N -10.9860 -3.7337 40.9294
C -29.8128 -11.2422 156.8070
N -40.0423 -13.3526 222.3165
C -39.4246 -8.9060 213.1456
C -22.6445 -2.2277 122.8894
H 53.4273 9.2701 -277.6917
N 53.2934 16.2398 -300.3895
C 45.4626 16.1913 -296.7878
F 30.0949 14.5599 -229.0799
O 30.5580 0.3777 -158.2029
O 8.5461 2.1920 -13.4925
F -19.9759 -4.0560 157.1776
N -50.3461 -16.7310 318.3468
O -72.9361 -13.2524 381.6883
N -51.2654 -15.4496 311.6679
16

O -0.8626 -55.0227 -107.0711
N -5.2103 -29.9719 -59.6153
C 4.7908 -15.0940 -19.4726
O 24.3979 -0.6723 22.5392
C 10.5042 29.0280 57.2618
O -1.5423 47.9950 62.6264
O -12.7492 38.6744 47.1374
F -24.8628 13.0199 38.4335
C -14.9284 -5.9606 6.1610
N -10.6497 -45.4342 -100.1218
F -10.0977 -55.6605 -87.6082
H -22.3517 -43.4595 -60.6373
H 13.5995 -4.3931 5.1923
O 31.7364 35.1762 56.4699
O 21.5108 49.0351 76.8284
O -3.2848 42.7401 61.8763
19

O 188.5323 -38.1256 -162.1162
N 120.6963 -24.0169 -107.8922
F 87.3055 -19.6811 -85.2079
N 28.7609 -9.8890 -36.1639
H -48.4159 2.8696 36.2228
C -113.2914 13.5690 103.0332
F -141.5405 26.8338 133.0036
C -126.3336 35.6984 124.7722
N -60.3290 28.6525 64.7008
N 204.4931 -44.0915 -173.3512
C 209.9545 -38.2854 -189.8450
F 198.7303 -41.7593 -183.5959
F 107.2660 -19.5714 -134.5651
H 60.4176 -23.7054 -77.0637
O -28.5156 -13.4368 13.4904
O -125.1485 12.1778 112.6067
O -194.6360 39.8626 187.3845
H -215.6794 58.8003 212.2288
H -152.2667 54.0986 162.3578
20

F -203.7691 -20.2273 -69.7793
F -98.6541 -22.5486 -48.3638
O -62.8278 -17.5055 -56.6359
C 2.1691 -9.9575 -75.1121
H 56.6761 -11.8401 -62.9119
C 130.3972 4.0828 13.5035
F 139.3899 22.8773 108.8609
H 80.7937 48.4861 128.0415
H -8.3479 40.2004 73.7248
H -217.5096 -33.0415 -66.1055
N -158.7469 -32.9714 -43.9808
O -90.7668 -49.7039 -9.5250
F -14.1683 -4.0470 -30.8626
N -44.2477 -67.5064 -151.4492
O -60.7329 -87.9595 -254.9596
H -83.3413 -71.1449 -314.8459
N -100.7277 -3.4799 -201.5388
N 44.4263 46.6766 78.0476
N 180.8596 115.6099 367.1415
F 509.1283 154.0005 616.7505
18

F 91.6679 42.0504 -0.0521
C 49.0142 28.6543 0.0631
C 24.7411 24.0002 -1.8762
F -3.5760 6.1844 -3.0101
F -39.6924 -11.5772 -3.7612
C -60.8090 -29.4379 0.5068
C -58.3659 -32.5216 -1.0841
F -36.6765 -27.4941 -2.8313
H 5.7958 -5.0217 5.9409
H 101.4135 47.9406 -0.9436
F 96.3940 54.0635 -3.7312
N 85.1912 42.7023 -3.4734
N 26.0673 26.0456 -4.9956
N -11.7898 3.9725 -10.6796
N -55.9897 -31.1746 4.4880
C -82.5188 -51.7122 12.2943
N -78.5932 -53.4985 1.3087
H -52.2737 -33.1759 11.8366
18

O 64.7902 18.9555 122.5933
C 41.1783 11.6836 71.3138
F 24.1269 9.8352 32.6172
C 9.8021 -0.8687 -15.7989
F -17.9523 -10.5266 -51.6528
H -31.7910 -9.9200 -66.4445
C -47.3884 -7.8295 -68.5788
F -40.0950 -6.4654 -41.4441
C -19.8445 3.3753 -6.1421
H 66.6602 27.6697 131.5828
H 69.6420 22.5826 115.5520
C 64.9292 5.7092 110.3954
N 22.9524 12.8145 16.0782
O 16.9336 -1.8874 -43.2040
N -19.7199 -27.0451 -70.5775
C -60.1528 -38.3471 -89.9353
O -75.8796 -5.0738 -82.0452
O -68.1913 -4.6619 -64.3096
20

N -221.3495 -3.5167 -97.8987
O -122.6953 -8.8576 -71.9066
N -102.7032 -8.1273 -67.9404
F -60.0172 -0.0674 -24.0220
F 10.5594 19.1706 13.3411
F 111.1862 -4.0927 54.9472
N 198.4973 -38.1655 88.1881
F 175.3574 -17.0544 73.4732
F 102.2302 39.0731 26.5803
F -217.2332 -4.8624 -108.8013
N -212.1564 -28.1217 -96.2868
H -206.7273 -65.8012 -79.5592
C -139.3652 -53.1746 -56.2135
C -110.4911 41.4916 -83.1208
O -47.9086 144.0364 -8.6116
O -10.8950 267.6347 53.3642
N 23.5590 275.8883 111.5914
N 128.8311 85.4630 134.2580
F 297.7544 -135.1246 112.6802
O 403.5671 -505.7917 25.9372
17

N -28.3539 18.8599 -49.3685
C -18.1007 8.7202 -29.2139
C -7.2921 7.0256 -12.8452
O -2.0611 -1.6154 9.0534
C 13.2833 -8.9063 19.2180
N 18.5415 -9.9254 31.0732
F 17.4691 -9.5470 22.2162
F 12.8815 -10.1146 14.6274
C 1.7957 -1.6372 -2.1792
H -27.9243 18.3299 -49.6935
N -30.5743 19.1776 -49.5702
N -34.9310 8.8177 -43.7979
H -4.1465 -4.7941 -4.1395
F 4.1824 -5.6466 24.1038
O 20.6711 -10.9615 40.6429
O 37.5839 -9.3388 45.8127
O 26.9756 -8.4441 34.0603
17

N 54.6192 -86.8337 -3.1259
N 30.0804 -48.4374 -9.4475
C 9.0883 -13.7616 -14.1146
H 0.4881 14.6873 -14.8459
O -15.5517 33.1176 -5.1164
N -22.6497 33.7934 12.9820
O -30.4442 44.3621 20.1672
F -41.0826 40.0779 1.2331
C -32.9857 17.8765 -8.2914
F 61.4367 -102.9115 -5.2885
N 45.0589 -80.4462 -0.1345
H 40.8294 -95.9669 -5.5081
H 14.6877 -3.6051 -3.2780
H -4.3743 23.6226 -3.7407
O -36.5275 69.5889 23.3098
O -17.4633 84.6385 1.4959
O -55.2098 70.1976 13.7036
17

N -22.7146 42.3893 -5.3644
O -10.1069 27.4873 -7.7304
N -0.9615 13.6009 -1.1513
N 7.8563 -4.0147 -0.6619
C 12.3715 -20.6493 1.9249
N 10.7390 -30.8379 7.4119
O 6.6357 -28.5932 5.5617
C 2.8086 -21.2072 -0.5345
C -1.6603 -6.5946 -3.3057
F -23.6791 41.2884 -1.1628
C -21.3648 47.5485 -0.0622
H -21.3308 39.1159 -10.4065
O 2.3003 23.3672 -4.8118
H 25.0858 -5.6135 2.2310
O 12.6180 -34.8264 9.0349
H 16.1510 -43.0038 3.7118
O 5.2515 -39.4570 5.3153
20

F 92.4842 -30.3958 84.6517
H 52.5717 -33.8212 50.3684
O 20.9047 -46.1252 24.3601
F -18.3209 -58.8701 -16.9805
C -70.7654 -37.3905 -50.4455
C -65.8051 10.5852 -54.5107
F -33.9617 66.7416 -46.6215
F -12.5972 106.2744 -33.5882
N -16.4556 91.0793 -6.3655
C 105.4681 -41.0281 99.2488
F 145.9659 -48.0040 95.0636
H 178.6102 -46.0255 95.1844
F 74.6739 -73.4487 35.7070
O -65.9767 -156.5263 -17.4849
N -201.9283 -188.0424 -61.2683
F -328.4984 -140.9085 -91.1144
N -335.1752 -20.0611 -80.5399
H -148.4508 134.0377 -63.6523
F 94.7972 241.4975 -32.7102
F 532.4594 270.4316 70.6975
21

O -217.7145 -122.1963 50.0833
F -123.6846 -91.6786 32.4824
C -63.5009 -34.4133 20.0075
N 55.1519 62.7306 3.0636
O 113.2264 123.0416 -0.4057
O 114.5424 139.8094 -3.2056
C 77.1657 78.4147 -30.3542
O 5.8237 -33.8089 -51.3443
H -39.6106 -150.1377 -47.2414
F -214.5557 -150.6487 55.9867
F -192.8156 -115.5099 59.0189
N -142.0757 -114.7503 77.8931
C 36.4593 -4.2407 47.0544
O 145.7141 96.5116 9.9934
O 238.4408 210.6538 -61.2983
F 292.7572 277.4310 -105.0478
F 191.9759 306.2145 -116.8901
H -7.8826 225.4775 17.4186
N -160.6897 -30.2293 57.9852
H -186.9029 -355.6297 89.7931
F 78.1752 -317.0414 -104.9928
17

F -104.3571 -61.9028 -73.7822
C -66.5171 -40.0716 -41.9345
C -19.7925 -19.0361 -35.3344
N 16.5755 3.5718 5.5330
F 55.0173 33.8833 16.6015
N 71.8366 49.4713 44.8265
F 63.4469 40.9895 36.1308
F 43.9217 24.8299 18.2906
H 15.5145 4.7166 -4.3431
O -128.3704 -64.4654 -50.0748
F -134.5606 -63.1314 -64.6108
N -136.3491 -69.7262 -50.5921
N -10.2700 -11.3743 -12.2162
O 53.7005 17.1921 32.4059
O 86.9857 40.4617 56.2209
C 101.0583 57.3468 68.5246
N 92.1597 57.2447 54.3545
17

F -200.3062 -198.5593 41.8006
F -109.1536 -115.3298 62.5688
H -62.8566 -78.2050 76.8504
H 13.7208 -6.0044 1.1601
F 64.4720 60.7678 -37.3454
O 116.2284 146.7148 -51.4697
F 117.8815 150.7469 -58.3834
C 81.4525 107.4017 -52.6971
O 29.6923 41.0267 -40.6879
F -214.0383 -188.9840 56.0760
F -196.7097 -215.9896 59.8198
N -180.3561 -196.0067 92.7744
H 20.8532 -46.9085 45.5335
C 58.0963 2.7506 33.1747
O 141.8591 123.7062 -58.1969
C 176.2969 233.8410 -51.0934
O 142.8674 179.0315 -119.8845
15

N -7.0201 -23.5146 27.0356
C -0.3707 -13.3952 18.2936
C -3.7347 -4.3299 7.3865
C 1.0547 4.1445 -0.5964
C -1.2235 5.7640 -12.2739
O -0.6319 14.6547 -23.1660
N -4.4660 20.0175 -21.9609
F 0.4609 20.5091 -7.0974
C -7.8660 -0.6199 3.5951
H -9.4324 -25.7711 27.6641
F -1.9987 -21.0387 25.6174
C 2.3756 -30.9708 17.2157
H 7.0560 -1.6798 -1.0046
H 18.4857 20.9165 -26.5870
O 7.3112 35.3137 -34.1217
19

N 147.3181 161.6877 -106.6829
N 95.9524 100.2252 -68.2468
H 76.7489 64.5437 -45.4671
H 30.6139 13.2078 -9.2670
H -35.0508 -50.3113 35.1101
N -87.8947 -102.8663 70.0022
F -112.5047 -111.8343 73.2184
C -109.5862 -87.0565 57.6112
H -62.9815 -22.6376 16.3013
N 159.8957 176.9008 -113.7138
H 167.9415 173.4869 -116.2542
N 159.2457 160.1204 -107.9306
H 103.6555 74.2174 -46.6321
H 66.9269 4.1222 -13.6919
O -15.1140 -58.8478 43.5860
N -97.7681 -114.3286 86.7958
N -173.4778 -148.6690 109.3222
C -185.8219 -143.2421 98.3665
O -128.0991 -88.7184 37.5726
23

F -119.3041 -116.4732 -159.1557
O -73.8092 -70.8223 -112.2317
C -73.4462 -15.3329 -78.6891
N -21.3873 18.3739 -10.8063
C 13.1151 0.3507 35.5039
N -47.5823 -46.9487 158.2226
N -93.9454 -23.2159 126.1911
C -110.4746 0.4120 181.8663
C -43.1595 0.2346 124.6529
O -55.0070 -106.3231 -259.1865
F 36.5218 -74.9132 -414.1011
N 226.4570 141.8378 -223.4300
C 252.8824 0.9076 -147.2770
O 194.0974 -297.5316 -33.5705
F 153.1859 70.5916 205.0470
H 242.3074 177.5101 18.3894
F -74.5836 230.7615 -120.2898
C -231.5620 563.4969 315.9346
H -59.2250 -394.3539 441.0127
H -346.6349 -153.8059 -161.6129
O 266.7539 -429.1434 553.7822
H -264.8841 351.7586 127.2472
F 229.6845 172.6288 -567.4993
22

N -119.2199 -401.3537 -57.4005
O -33.0154 -197.9895 30.0583
H -114.1911 -69.0999 43.1540
O -77.2386 111.5849 40.3332
C -53.3341 39.9474 53.2941
O -87.7988 6.7105 62.8150
F -29.1591 12.8524 -30.8957
C 126.5483 100.1182 -84.8362
H 155.9569 73.6966 40.9188
O -125.8597 -374.2091 90.1288
H -72.4543 -38.5419 8.1057
H 55.1558 124.6787 111.7360
C -26.9884 309.4740 0.1399
O -40.5467 132.4634 -264.6224
N 148.5908 -204.5357 -204.2553
C -14.6134 -367.8569 -74.0906
H -23.5505 -88.4553 -78.3526
N -172.7173 273.1137 346.5914
F 294.7954 312.1460 139.6291
F 256.5408 -530.8140 -152.2971
H 128.3760 101.6034 -63.2540
C -175.2767 674.4667 43.1002
15

C 8.5569 -5.4544 -12.9112
C 5.7193 -3.3570 -6.2619
C 2.1157 -1.6275 -2.3933
C -1.3324 -0.0592 1.8335
C -5.1453 1.3241 7.9215
O -8.1240 4.0893 10.5125
N -7.3116 5.2617 10.2592
C -3.5594 5.2269 3.2805
N -0.7846 2.4856 -2.3210
H 10.1497 -5.7427 -12.6179
H 11.2651 -3.0417 -15.2048
H 9.0489 -1.7086 -9.0314
H -2.9352 1.0787 3.1115
H -7.6032 2.3089 10.1573
O -10.0599 -0.7842 13.6655
21

H -324.2035 -160.2838 161.9292
F -160.5466 -125.9391 106.7224
H -93.6602 -10.1965 49.3060
N 52.9826 153.2331 -7.0257
O 135.6791 240.3866 -53.7253
H 187.4007 269.1350 -81.2072
C 163.5429 130.8243 -109.1498
O 53.1726 -139.3520 -94.4730
H -69.9833 -444.6777 -7.9487
F -349.2538 -147.9987 182.9501
F -270.9710 -89.3251 136.0309
N -131.5493 -12.4712 93.9303
N 128.1788 143.7213 33.7526
O 140.5703 207.7939 49.8817
N 158.6919 324.2874 -46.3090
N 115.3547 198.7354 -4.7408
N 92.6781 142.5452 -113.9690
C 58.2055 167.1345 -97.0412
O -33.0958 -5.1548 -128.2590
H 97.6625 67.8461 -126.0517
H 49.1436 -910.2439 55.3971
17

N -61.5418 9.7222 115.3184
H -26.4911 11.9659 70.8961
F -11.0849 13.6443 38.5537
C 17.2435 2.8741 -11.4107
H 21.7163 -21.2683 -64.1005
N 33.8120 -9.0527 -71.1488
F 36.7101 -0.8511 -73.3907
N 13.8738 -7.1037 -52.3951
H -7.3519 2.5818 -5.7154
H -63.6649 14.0352 137.9859
C -63.2081 18.9611 121.5841
O -44.4404 2.3912 99.4480
H -10.4567 14.7877 12.6854
O 21.4846 17.0062 -37.6701
C 51.2041 -7.5117 -78.3081
H 60.0512 -36.6175 -103.6477
O 32.1442 -25.5646 -98.6846
21

C -114.2014 246.1270 38.9299
F -53.0493 159.4899 24.7798
H -16.4515 141.5283 1.5911
C 42.0684 104.1232 -22.9543
H 83.7272 1.2026 -35.2394
O 82.8367 -118.7730 -4.0212
F 32.4201 -213.3399 9.9418
O -20.3889 -245.8906 7.6317
H -65.5349 -192.1163 -19.5225
N -128.4556 264.6357 53.0668
C -106.5949 263.1456 48.5531
H -92.2591 259.9121 45.3859
F 24.9805 227.1205 -8.3600
N 111.8784 182.5465 -84.8288
N 168.0341 96.3393 -163.1349
F 214.9847 -32.2572 -154.5012
N 170.0473 -186.5430 -98.2614
C 62.1398 -301.1189 100.0723
O -122.0284 -349.3260 234.8712
C -241.6268 -172.6790 211.0607
O -32.5263 -134.1268 -185.0605
21

N 51.9418 -75.8688 -284.9142
C 26.5867 -47.0246 -159.9500
F 33.2826 -16.3393 -83.2722
C 40.3237 -16.4996 21.5134
F 27.2286 -14.9927 113.0953
C -22.5526 4.8532 148.4015
F -67.3541 37.6810 122.7822
O -90.7495 71.8829 101.2472
H -33.5709 94.3480 34.8565
O 53.1837 -89.1063 -311.3082
F 29.2886 -55.5151 -271.9261
H -4.6373 -27.0117 -238.9467
H 63.7402 47.7504 -41.4088
O 90.9212 18.2920 156.2861
O 103.8124 -68.2606 251.8609
N 104.4678 -201.6272 237.0902
N 59.0100 -268.8140 144.4709
H -39.9464 -213.6071 -59.3164
H -139.3560 -20.2404 -181.9108
H -340.1122 467.6969 -10.9355
C 54.4919 372.4031 312.2845
22

F -48.9853 -457.1037 -87.6088
C -32.1068 -261.7941 -31.4090
C -58.9005 -183.3039 4.1459
F 17.1599 -25.6069 89.2103
F -26.7346 79.1900 101.8045
F -38.9040 236.3100 152.6685
O -68.4106 310.4274 -9.9139
C 9.6545 283.4581 -101.9498
H 29.3192 111.5659 -185.4007
O -40.2922 -530.9537 -34.7532
H 3.7925 -343.8280 34.7705
F 23.4903 -227.6497 111.3476
H -17.0906 -58.7923 -25.8289
O -39.4957 -148.1278 -185.5560
F -9.0109 -348.3714 -179.7902
C -16.9068 -274.7743 -108.8743
H 49.3030 179.8158 31.3349
N 132.1846 642.7338 439.8930
F 243.4157 649.6349 175.6160
N -79.5192 69.1730 88.8764
H 42.0077 17.3649 -256.9434
C -73.9700 280.6320 -21.6394
19

N -382.2986 137.2480 -180.9592
H -237.6095 88.5953 -104.0533
O -177.0239 59.5302 -55.8870
H -64.7630 26.8734 5.2829
N 86.5394 -31.4394 64.7100
N 216.6408 -71.9160 105.1772
O 284.8223 -98.6300 104.2964
C 261.0323 -96.4220 72.6621
C 142.1649 -58.4597 17.3122
N -414.0063 149.8929 -200.1637
C -435.3160 147.2530 -184.9015
N -415.2891 146.1000 -162.2183
C -236.7337 69.2887 -49.4822
O -126.1915 41.6787 19.0546
C 47.9340 -13.4207 81.1680
N 243.0457 -80.5247 148.4813
N 395.1741 -149.7099 146.3697
C 447.9846 -161.5118 121.8007
O 363.8935 -104.4260 51.3500
16

N -29.2229 -7.5491 -13.4127
C -16.9635 -3.1364 -8.1359
H -4.9853 -0.9715 -1.6182
N 6.7128 1.5803 3.0844
C 14.5687 3.8303 5.7751
C 17.9976 4.6164 6.9842
O 16.4562 2.1401 6.8977
C 10.6100 0.0007 1.4255
O 2.9210 -0.8095 -1.3598
O -32.8241 -7.9732 -9.8041
F -27.2753 -7.9187 -8.5191
H -23.9865 -0.9184 -9.7617
H 0.5464 6.9009 0.6963
O 18.3459 4.7786 8.9703
H 23.6754 4.0255 10.5017
H 23.4236 1.4038 8.2761
18

F -36.6906 -90.5420 -27.6393
F -17.7950 -51.8670 -11.8447
F 2.3756 -28.7250 -13.6415
H 13.9088 8.0632 -1.0372
F 18.0644 38.6077 7.7858
O 15.3141 55.5265 6.5855
C 11.2140 62.2994 15.0597
F -6.7074 52.4836 22.3168
H -17.4053 -0.5237 16.8060
F -43.3106 -96.9309 -40.2384
N -40.7136 -90.9922 -26.7907
H -24.6801 -77.4761 -36.8545
H 15.8613 -24.6925 -3.8716
O 34.9436 14.4070 11.0503
N 46.0407 42.0011 23.4030
F 27.2428 62.2773 23.1383
N 10.2302 64.9365 13.6062
N -7.8928 61.1472 22.1660
16

C -24.4191 10.2812 26.2217
N -12.4033 5.9300 14.7186
C -4.9883 3.1202 4.6627
O 12.0588 -0.4917 -6.2098
H 13.4343 -5.2802 -14.1301
F 12.6971 -6.0288 -17.1663
N 12.6999 -6.3059 -11.3094
N 8.2772 -7.5784 -9.8177
H 0.2875 -9.5015 -7.7882
H -26.7845 10.3276 26.4179
C -23.6766 9.1254 26.0661
F -23.1041 8.6517 30.8237
H -0.4661 4.3706 -1.4115
O 12.2632 2.3137 -15.3740
O 23.3812 -8.5816 -24.6494
C 20.7426 -10.3523 -21.0545
19

O -13.0541 -124.3925 11.9299
N -7.8500 -77.0609 10.0809
F -5.7230 -52.0658 13.0736
O -4.7738 -15.2643 13.1009
C 2.7370 33.2755 5.5741
H 7.7009 72.2583 -5.8004
F 11.7394 89.0537 -20.1092
N 9.6891 78.1795 -22.7786
F 8.6168 29.2510 -19.4645
F -14.7176 -135.3222 11.8760
F -17.0336 -133.4897 17.9470
H -16.6975 -121.1980 20.7826
H -9.8071 -57.6823 28.4318
O -9.9799 -19.6831 33.1158
O 6.5114 28.5678 24.2384
O 6.7174 75.3672 2.6165
H 13.9563 112.5416 -30.3147
F 13.6520 123.2583 -43.2826
F 18.3163 94.4057 -51.0175
19

F -105.7857 21.9212 -89.7754
C -76.7453 24.9874 -54.8312
F -29.5185 22.6049 -15.5693
F 6.8569 11.6441 34.8817
F 55.1447 7.3060 64.1724
O 70.6537 -3.5741 63.5651
F 62.4637 -24.0858 16.3257
N 35.1332 -36.4994 -17.5343
C -1.5110 -17.6349 -56.0807
O -116.9340 30.4396 -91.6429
F -108.2915 35.8874 -76.5549
N -109.2429 30.2258 -51.3386
N -14.0729 29.3490 45.0195
O 17.1364 23.5258 108.7118
O 55.3246 3.4113 124.6579
O 88.5658 -10.3850 117.1816
C 84.3172 -33.5393 36.3979
O 61.9484 -67.1742 -44.4979
F 24.5572 -48.4096 -113.0883
19

O -82.4065 68.2005 -103.4103
N -49.8984 48.3857 -60.8492
F -42.9945 38.7463 -16.7411
N -8.8462 24.0993 18.4040
H 17.1201 -10.5149 55.2579
N 46.8361 -39.7304 67.1866
F 66.9877 -52.9672 47.3947
N 53.8221 -57.9198 17.9022
F 34.2834 -29.7649 -26.9118
O -90.9495 77.4284 -113.1133
F -95.8824 75.3659 -97.8227
H -94.1378 75.2697 -82.5749
C -49.9210 42.7890 3.5779
O -26.7869 28.6088 63.4862
O 4.2696 -4.9538 91.7122
O 44.8739 -38.9476 107.9547
O 80.7495 -72.7121 68.9839
N 102.2549 -95.0600 16.6065
F 90.6259 -76.3228 -57.0435
15

N 60.6371 -6.3688 40.7653
H 28.8692 3.2293 15.7151
C -2.3269 -0.7074 3.0765
F -13.5454 7.5762 -0.9092
F -29.0531 10.1919 -10.8704
O -29.7020 7.1632 -20.5307
O -36.5042 10.9928 -23.8015
F -27.2938 -8.7907 -31.6938
C -5.4811 -5.5008 -9.2672
O 67.4289 -6.0216 36.4410
H 62.5125 -9.1259 36.8686
C 40.7614 -21.4056 18.6063
H -33.8289 11.7600 1.3939
H -38.3714 10.3308 -18.6468
H -44.1025 -3.3233 -37.1470
12

C 5.6976 10.4640 -10.0195
C 1.8424 5.3051 -5.5718
C 0.2224 0.7107 -3.8872
C -0.4286 -5.6295 0.8544
O -3.9334 -9.6292 11.0027
N -6.0579 -6.8738 12.2006
C -4.2925 -4.6792 9.9724
C -5.6502 -8.3039 8.6155
N -9.3603 -5.7896 6.1195
H 7.6938 9.4090 -9.9431
H 7.3484 9.7592 -11.2771
H 6.9184 5.2573 -8.0664
19

F 96.9862 166.4434 -22.4315
C 55.5300 102.5384 -15.8696
F 37.4740 74.1187 -16.0348
F 6.4574 18.9639 -18.6478
F -35.3913 -50.1873 -8.7732
C -59.8986 -98.7821 13.7399
C -60.7264 -115.5727 23.6454
H -46.8761 -94.3104 30.7424
C -20.3772 -34.5087 23.6375
C 102.5808 182.0764 -22.5206
F 100.2484 181.6086 -24.9116
N 90.3942 168.4848 -26.5366
N 35.1282 79.0028 -39.6799
O 9.0565 16.4694 -46.1074
N -43.3994 -52.2188 -22.6513
C -74.3282 -119.3992 7.0072
F -89.9321 -159.5658 41.0806
H -69.0938 -154.9329 69.0526
F -33.8326 -110.2285 55.2588
16

F -23.5285 -19.6246 79.2674
N -12.5136 -8.7184 48.9285
C -8.7098 -0.2765 13.2598
C 7.2380 -2.1354 -13.1073
H 3.2907 -6.4056 -35.0826
H 6.6345 18.2003 -50.9679
N 17.8845 15.7940 -44.2790
C 17.4696 -0.9764 -19.3099
C 4.1021 -0.6436 1.9978
H -30.1300 -20.4561 87.3130
C -17.0575 -14.6650 67.3690
F -23.5519 -14.1984 65.0591
F -4.8345 6.3341 2.8653
O 14.0252 15.8665 -52.0082
O 35.1871 6.7099 -78.1217
H 14.4942 25.1951 -73.1832
15

N -10.0368 0.3324 -25.6948
C -4.5666 0.4878 -13.8617
C -0.5825 0.1133 -3.1082
C 3.7119 1.2558 7.0134
C 4.7418 2.8304 14.7912
C 4.5931 1.8470 16.4484
C 2.9440 -0.9592 10.8870
C 0.9299 -3.2308 6.9194
N -2.8400 -5.4427 5.0618
H -12.3738 1.8291 -27.1004
H -6.6032 0.2201 -23.1959
H -6.9743 -0.7742 -14.4736
F 5.3345 -2.5099 6.8868
H 8.7378 3.0390 18.9715
H 12.9840 0.9621 20.4553
18

C 154.3786 -17.0963 -103.2423
N 95.4303 -9.5380 -61.5496
F 53.8760 -1.6198 -21.7489
O 9.1481 -9.2786 8.2376
H -62.3107 0.1860 44.4949
N -105.2321 5.6736 67.1451
F -99.7899 10.8798 59.0459
N -83.7457 2.4978 32.2493
F -16.5412 11.7297 -16.0993
N 176.1483 -16.4842 -110.7746
H 179.0302 -3.4927 -107.1991
H 151.7487 -0.6015 -86.0231
O 49.4188 4.1341 -25.9140
O -13.0460 3.5517 34.6984
O -84.0102 -9.4459 82.8001
O -135.0035 -11.8227 110.0743
O -145.6689 15.6497 60.4869
H -123.8308 25.0772 33.3183
20

H -225.5788 -126.2535 -2.9117
C -140.8876 -78.1867 1.5621
C -89.1023 -70.8624 -1.9152
N -16.9846 -48.6976 25.6816
C 52.4572 9.3094 18.3984
N 128.3147 67.1980 11.4344
O 169.8149 115.5736 -14.6995
F 134.4191 119.6312 -36.8720
H 39.3277 70.2031 -22.4975
H -243.5241 -139.5716 -7.4005
F -219.3268 -134.2947 -10.8572
N -173.1871 -117.4918 -15.9115
N -67.6531 -99.4677 10.8416
O -64.0736 -98.1524 56.9979
O -31.1488 -67.3020 96.8436
H 2.0506 -5.9577 119.4692
N 39.3997 83.7838 87.1228
O 149.1592 160.8364 -18.3555
F 222.6904 190.8786 -122.6080
H 333.8333 168.8243 -174.3230
20

N -44.8659 91.0124 -62.2252
H -26.9791 52.3313 -41.0303
F -23.6733 41.4046 14.3569
N -25.9461 15.5351 28.3831
H -7.6844 -18.6556 53.3439
H 20.7895 -51.3132 42.8120
F 54.6522 -70.4422 -0.5710
N 55.8399 -63.7452 -24.5558
H 34.7824 -7.1494 -60.1455
N -43.4877 99.8397 -67.3343
F -49.6598 80.4068 -41.5169
C -64.2114 54.6804 -22.3586
O -57.0655 11.5792 60.3898
N -44.8476 36.3445 98.2194
O -29.3459 44.6524 115.7538
O -19.0455 69.0961 109.9638
O -9.6541 57.9626 23.7590
F 43.0515 -46.1324 -53.2766
H 120.8487 -110.1849 -149.3811
C 116.5024 -287.2225 -24.5863
19

F -6.7409 -86.4572 -62.1776
F 3.5054 -51.6938 -50.1229
H 7.7630 -31.9065 -74.2706
C 12.4942 0.6670 -66.7561
H 7.5804 25.4505 -44.1220
H 0.0766 48.9056 37.4835
F -6.3093 53.7952 96.5244
F -23.7506 36.2473 130.7584
C -22.0561 12.1436 115.5258
N -5.1684 -94.3724 -66.7244
C 5.8930 -88.1222 -103.5233
O 7.7960 -75.7806 -113.7199
F 24.1829 -26.5011 -150.0628
N 37.5098 -11.7463 -153.4569
O 35.6451 25.3926 -111.0032
H 20.4600 67.8986 -4.6852
N -17.2259 85.0637 123.8979
N -34.9065 79.6878 237.3221
N -46.7487 31.3282 259.1130
19

O 72.0319 255.0808 -137.9515
H 47.4874 159.7331 -85.6636
F 33.3514 116.3072 -40.1763
C 17.7512 43.4978 4.3906
H -17.8173 -65.4382 58.8403
N -44.7222 -153.4655 85.1317
C -51.1115 -188.9920 79.2246
C -55.9697 -165.3557 49.6334
N -32.3427 -70.0798 3.1102
N 77.8447 283.2543 -152.3451
F 75.7364 285.2822 -137.0216
C 79.0405 271.4071 -118.7730
C 53.8898 142.7467 -32.3343
N 36.7933 56.3249 22.3522
O -10.4594 -55.6421 79.5647
H -58.8003 -174.5996 125.2904
C -89.7248 -263.6841 114.5155
C -88.2088 -284.2640 84.9344
H -44.7700 -192.1131 -2.7225
15

N -5.1073 -18.3521 -45.6370
C -0.8971 -10.5962 -24.6524
C 5.1145 -5.0314 -5.4572
C 8.9693 2.5235 15.6323
C 4.3650 10.8351 27.0755
C -0.5098 19.0642 27.9121
F -3.4860 13.4516 24.0309
C -3.6763 5.5287 17.6189
N -0.1408 1.8974 8.6575
F -5.9580 -12.9979 -44.1233
H -6.5425 -17.2923 -37.6712
H -14.4023 -15.3897 -31.4554
H 8.0031 -5.4062 4.7881
N 7.4868 12.9831 27.9729
O 6.7812 18.7822 35.3086
19

O 56.9251 23.7177 -170.9918
F 33.4435 19.2122 -109.1154
C 38.2992 17.0608 -82.4847
N 32.2739 8.7617 -22.4487
C 2.1912 0.2772 50.9159
O -30.0641 -18.5793 101.0974
C -56.2561 -28.8936 127.3737
F -65.5607 -29.3528 103.8401
C -47.5967 -19.2900 46.7438
O 57.8244 33.3012 -181.1481
F 64.3862 38.7817 -187.1983
N 71.1432 34.2305 -178.8035
N 69.0399 37.1059 -110.5571
O 64.6662 21.9016 -44.4478
N 22.6896 14.2015 41.0365
O -29.3357 -9.9834 124.2509
N -78.1548 -39.4571 179.1958
N -108.6181 -50.7443 192.8407
F -97.2960 -52.2514 119.9006
19

C 61.8080 -20.2477 52.1703
N 44.4612 -5.8787 34.8040
F -1.5458 8.6408 107.5639
N -13.2623 26.5623 90.4753
H -42.7285 0.2984 62.3263
C -35.7482 -12.7018 -13.4820
F -11.9317 -3.9116 -115.8817
C 1.1051 0.7237 -163.5108
F 34.9682 15.0060 -153.0591
N 54.1168 -14.7601 58.6343
F 59.5752 -12.8708 97.5566
C 51.1810 -0.8615 140.2569
F -0.4791 5.9444 194.0403
O -46.5430 1.1544 238.4045
O -63.2348 -19.9129 171.3975
N -105.3742 -7.1191 43.4747
C -63.8112 -2.9430 -172.5613
C -5.8818 0.2834 -288.3030
F 83.3252 42.5940 -384.3067
16

O 21.1304 11.0903 31.2308
F 12.1892 7.1708 17.1892
O 3.0691 3.6434 7.0703
F -3.6491 0.4958 -6.4175
F -9.7370 -5.8091 -15.7489
N -11.5369 -6.4443 -19.4141
N -14.1035 -6.1554 -20.4177
F -10.0644 -3.0167 -10.2008
O -3.1268 -0.1864 4.0701
F 20.6233 14.6802 34.7561
F 22.6641 9.2659 29.9674
H 15.7974 9.4539 27.0280
H -4.3161 1.2772 -3.6362
O -8.8619 -7.4251 -20.1140
H -15.7132 -13.8327 -27.5766
H -14.3646 -14.2079 -27.7861
18

F -14.2242 -40.1056 -120.9898
N -11.3726 -18.4470 -72.2099
F -9.4489 -13.4302 -45.4529
O 6.4258 -3.2654 1.5780
H 7.3426 12.4342 49.9476
N 11.4619 22.1377 77.3947
F 11.4245 29.1778 77.1043
N 3.7332 19.1575 52.4295
C -0.4811 6.9263 1.3818
O -19.3740 -36.6451 -131.7269
N -19.6904 -43.3619 -125.5914
C -23.9612 -39.1663 -110.4516
H -3.1728 -16.8673 -43.4816
F 5.8955 -6.2189 22.7586
O 9.7463 17.1365 69.2198
O 14.8998 34.7784 107.1469
O 17.8517 43.2727 110.4293
F 12.9442 32.4865 80.5136
18

F 143.0851 20.6615 -12.8525
C 84.7846 14.3871 -1.2414
C 61.8949 15.6749 3.7833
F 15.0485 9.9309 -4.9645
O -51.1327 2.1181 -11.3293
C -91.0984 -12.5734 2.7070
C -110.8356 -20.6062 10.0629
O -89.7109 -22.6472 11.5487
H -30.8585 9.6509 16.8890
H 153.0750 26.4954 -32.1389
F 153.7047 21.4324 -20.6911
N 128.4216 21.8544 -3.7616
C 55.3244 15.9810 5.5207
C 24.3056 7.1056 2.2445
C -46.6486 -28.7474 9.2247
O -122.0340 -31.5787 17.9678
N -157.6023 -28.7358 -4.0353
H -119.7234 -20.4035 11.0659
21

C 2.2506 123.6148 -248.0562
F 8.0473 62.9337 -139.3216
H -54.0962 32.4334 -45.7313
N -98.1458 -20.8602 -8.1944
H -116.8686 -83.5708 70.8938
N -70.1162 -147.8833 106.2345
F 40.5917 -104.3750 98.6253
C 147.7295 0.4181 112.6441
H 219.4682 135.3301 34.0638
N 13.9021 110.0644 -265.4222
F -31.6485 118.2367 -219.6056
N -116.2356 84.5698 -127.4554
F -160.4931 58.1898 58.4179
N -179.1871 4.4036 74.8301
C -157.0190 -100.4238 39.9125
F -97.9344 -143.6528 -64.6318
H 44.0203 -148.9675 -162.9271
N 125.4634 -140.9413 -38.6327
H 249.9690 -29.3123 39.9108
C -26.0259 -155.9757 455.5800
H 256.3284 345.7683 228.8656
17

C 56.7710 -21.0248 -87.1689
N 36.6642 -7.0766 -53.2267
C 7.1652 6.2730 -21.2869
F -1.8976 13.6250 6.9562
H -26.1795 5.0023 44.6677
N -33.2529 4.6574 62.5906
F -22.2614 7.2982 56.0731
C -30.6503 -0.1727 27.8256
F -6.4406 -0.9575 -8.5504
N 68.3816 -24.3986 -99.0280
H 52.3677 -14.2467 -90.8471
H 43.7004 -17.9103 -91.5445
O 24.9909 13.6581 -10.5298
C -14.5019 20.5036 33.9164
O -45.9858 5.6451 76.1614
O -58.3004 -0.7371 87.4687
O -50.5706 9.8615 66.5225
17

N 18.5630 -149.4361 43.2052
O 9.9688 -85.6560 22.9316
H 4.7765 -23.4940 5.7235
H 8.3047 27.8075 -33.4482
O 1.1348 56.6000 -44.9431
C -3.5548 74.6805 -18.1072
N -11.5348 75.0816 -3.4152
C -38.8922 66.7904 -6.4097
O -34.9970 35.0080 7.6935
F 27.8501 -176.2338 31.4262
N 6.2574 -157.2133 51.3834
H -0.2699 -167.3723 38.2289
H 22.6021 -21.8536 25.3429
H 21.2196 30.2379 -3.6255
O -10.1918 111.0245 -8.6643
O 21.3231 164.2136 -58.0131
C -42.5595 139.8153 -49.3090
15

N 13.1701 -1.1693 7.4159
C 6.6894 -0.5591 3.6583
C 0.3490 -1.7410 0.9130
F -5.2959 -0.2519 -0.7180
C -8.0754 0.2104 -3.1683
N -6.4811 0.1172 -4.4506
O -4.8092 1.2612 -7.0142
C -3.5056 1.2547 -5.4926
N -1.5174 2.1552 -2.7249
H 13.9536 -2.0619 6.7496
H 12.0376 -0.2971 7.2661
H 7.5258 -2.1313 6.6307
H -5.3797 1.7600 0.5289
H -8.7003 0.8482 -2.2211
H -9.9610 0.6045 -7.3730
16

N 21.5023 -76.2635 -89.6841
N 5.1044 -47.1029 -51.6621
C -1.3935 -19.1614 -22.9877
N 15.0872 5.9407 15.0475
C -4.6386 41.2268 37.9506
O -4.3227 49.4822 47.0378
F -12.5544 40.3873 44.9971
F -33.4252 26.8457 36.6828
C -20.6464 10.4207 -4.8211
F 13.2193 -72.4832 -68.8886
F 11.9021 -56.0485 -68.8260
H -0.7035 -43.7271 -36.2516
H -8.3255 6.2079 -2.8992
H 22.1633 31.5571 34.5467
O 5.9889 50.9712 61.6715
N -8.9580 51.7470 68.0865
19

F 101.4260 -12.6838 91.5960
C 62.5727 -7.8888 56.1488
C 45.4483 -5.6405 37.9679
O 13.0754 -2.3953 7.1208
C -26.1594 1.0162 -28.0395
C -57.6379 6.1344 -54.0743
C -73.0924 9.0925 -62.5881
O -64.9517 9.9455 -51.5486
N -33.5644 9.6098 -22.5615
H 108.4164 -12.9545 98.1854
F 114.5235 -14.6780 100.3277
H 110.2161 -16.2578 91.1562
H 57.3084 -6.2548 54.2510
H 26.1559 -5.8230 20.4510
F -20.0283 -4.5626 -23.2791
N -67.8832 5.0556 -69.2100
H -101.7082 17.0791 -91.4394
H -109.1141 18.1259 -91.3638
H -85.0031 13.0800 -63.1005
17

N -24.1601 44.3734 37.6941
O -7.5168 27.9215 21.1625
C -3.2097 13.8351 10.7662
O 8.5420 -2.7130 -7.3977
O 16.9485 -20.8259 -19.7637
N 13.7114 -32.2657 -18.5494
F 11.7511 -26.8422 -17.0953
F -0.6436 -20.6121 -17.5956
H -6.8179 -5.3548 3.8811
H -29.5776 47.6004 50.0421
C -21.0481 46.8882 45.5463
O -17.9114 40.1828 28.6682
O -1.0373 18.1854 6.8135
O 16.3295 -11.8476 -17.3837
N 16.9139 -26.9790 -28.7419
H 14.0679 -48.3916 -43.9616
O 13.6584 -43.1550 -34.0852
18

H 145.8849 -112.3672 -7.3643
O 89.9261 -69.8879 -15.8577
F 52.6120 -54.2417 -17.7759
N 2.6866 -26.0334 -7.1107
C -46.5511 26.8111 -4.1121
F -85.1176 74.8142 -0.5536
N -93.1246 73.4766 2.9009
F -91.4783 72.0276 17.0025
C -12.9233 39.8913 21.6925
F 161.8144 -115.0381 1.7972
N 139.5623 -127.7169 -25.0074
H 127.9952 -124.9783 5.7340
O 38.5294 -59.1072 -4.5839
O -6.0062 -36.9096 -4.4350
C -71.6765 24.4597 -14.4442
O -102.5151 107.8300 3.3549
F -136.4692 156.4111 21.8781
F -113.1491 150.5585 26.8847
20

H 239.2094 -90.5648 227.5033
N 149.5661 -51.6376 137.0288
H 115.5894 -26.3843 128.2831
C 55.4132 -11.7432 61.5421
H -43.4700 7.7113 -25.0490
C -134.7326 55.3982 -113.6619
N -195.9262 81.8118 -189.4076
C -188.8979 72.6539 -188.6373
H -91.5650 13.5408 -125.5231
O 264.1545 -104.2885 229.8429
H 281.2887 -73.6550 251.7452
F 268.5134 -27.8417 244.4488
F 180.4203 -9.8509 189.7065
N 89.0241 -65.8137 166.2792
C -36.5757 -119.9677 49.7820
N -122.7392 -169.4193 -109.3185
C -184.3476 -145.1048 -247.3463
C -222.8288 -2.5009 -339.9553
F -238.8134 189.3666 -320.8231
F -183.2827 478.2899 -26.4400
15

C -18.9650 -11.8846 17.9328
C -7.8159 -7.5425 12.0234
C -1.4256 1.1745 5.4505
O 4.7689 3.9481 -2.5446
H 5.8587 2.4989 -8.9247
N 5.5130 4.1527 -14.4868
C 3.3088 6.6195 -11.7506
C 6.4706 8.0601 -6.1586
H 0.8167 -1.1150 4.1175
H -20.8505 -12.5827 20.6369
C -17.4555 -7.5372 18.3032
H -9.6857 -19.5741 6.6643
H 10.0060 -1.6901 2.7467
O 29.2309 11.8671 -14.6677
O 10.2245 23.6052 -29.3421
16

O 39.1979 18.3410 23.1301
H 25.7641 9.4739 7.9501
N 19.0077 5.5098 6.1196
O -10.8688 -8.0809 -8.7188
F -28.2729 -13.6763 -19.7307
N -22.9257 -13.2916 -28.0163
N -31.6131 -12.5963 -18.2478
C -17.6764 -2.2928 -7.0091
C -1.8567 -0.0797 8.3363
F 40.6860 9.2079 31.5948
H 52.1737 14.7264 29.4969
H 35.6724 23.2752 25.2389
H 0.5336 2.3201 -5.9545
H -23.0834 -3.0013 -1.4463
H -35.4099 -8.1985 -15.8131
N -41.3284 -21.6367 -26.9301
15

N -17.9746 14.0321 33.5287
C -7.6994 5.9307 17.4652
F 0.2021 3.3785 0.2652
C 7.2115 3.7806 -8.5918
O 14.9405 -4.3749 -13.9207
H 13.0546 -9.0575 -23.8174
F 13.6154 -12.6407 -16.7336
N 2.6935 -14.7758 -8.3766
N -3.8200 -3.2480 1.8928
F -27.0200 15.9064 43.7254
C -17.7447 21.3239 27.3035
O -17.9929 13.5615 20.2146
H 8.5441 -3.7442 -13.5390
O 18.2502 -15.3794 -33.1985
O 13.7397 -14.6931 -26.2178
19

H 105.5910 7.7436 92.7115
F 68.3074 6.0946 58.2424
C 60.0482 11.6689 49.8860
N 31.5127 7.1126 21.2878
C -13.0986 1.3927 -16.8737
C -57.4018 -6.7370 -54.6939
C -87.1390 -14.6150 -77.9604
F -91.3336 -15.3458 -76.2662
C -59.4498 -8.0298 -44.9563
O 116.3381 10.3553 103.5617
F 125.5707 14.4649 109.2268
N 125.7053 7.2127 105.7156
H 92.0122 24.9316 68.9705
O 73.2922 18.2769 57.6198
N 8.6665 5.1563 7.4013
O -66.2960 -4.0741 -52.1619
F -137.8056 -15.2639 -111.0994
H -158.0360 -27.0962 -129.5867
F -136.4839 -23.2483 -111.0247
12

C -5.9277 8.2418 -2.5789
C -2.6347 3.1913 -1.9344
C -3.0352 1.8306 -1.5147
O 1.6755 -2.0355 1.8185
C 6.6584 -3.0407 5.0381
N 7.2235 -5.3106 3.7143
O 7.0136 -7.3184 0.3113
C 4.6380 -10.3581 1.3654
O 5.0320 -9.0774 -0.2164
H -7.6004 9.7984 -3.9556
H -8.4894 7.8243 -2.4736
H -4.5535 6.2544 0.4259
18

H 91.4059 -111.5512 66.7729
O 54.3116 -66.3642 41.7466
N 35.6187 -40.8340 27.5231
N 5.7331 -11.7778 3.3866
F -34.7408 36.4623 -24.0211
C -61.9951 67.6307 -36.5862
N -68.0834 70.8275 -44.9607
F -54.7659 60.6723 -31.8370
F -7.1677 34.6697 -19.1995
H 105.0554 -111.1157 67.1716
N 101.1224 -120.0118 66.3956
H 89.7162 -102.1000 71.5614
C 22.0641 -52.2250 39.1284
O 7.8822 -12.8872 11.5212
O -39.3241 46.0573 -22.7473
H -73.3375 94.2227 -54.3577
F -84.4560 124.3898 -88.8693
F -89.0389 93.9346 -72.6285
21

C 197.0364 -56.3677 -41.9093
F 112.8984 -33.7063 -4.2785
H 21.9995 0.4219 36.3730
N -76.1634 51.6733 46.5548
H -126.6009 88.0343 42.4995
H -139.6382 67.9269 29.4273
C -93.8578 3.6786 -62.1310
C -8.7307 -44.4369 -74.2016
H 125.9100 -120.1554 -52.2602
F 230.9521 -76.8747 -33.0437
C 163.9674 -39.1137 0.3036
N 25.7327 -8.6392 41.3284
H -86.5986 40.7216 99.5820
N -121.2709 64.9673 136.8218
C -99.0581 74.9095 96.0189
O 10.8504 194.0750 30.2684
F 156.1981 222.9755 -124.4985
C 170.2945 200.2468 -118.1164
H 90.6541 119.7267 -144.2575
O -516.8568 -370.3986 42.9420
H -37.7182 -379.6651 52.5769
19

O 112.1567 -60.0851 -10.5204
N 69.6376 -31.7321 -10.8489
C 33.8916 -11.7964 12.2792
H 9.6670 9.6970 16.9336
O -41.6555 22.3542 21.3860
N -63.1993 23.9833 15.9234
F -60.8746 29.7173 -10.6975
N -48.4382 20.2317 -28.5028
H -5.5908 7.2123 -39.6739
F 117.6474 -67.9610 -10.7982
N 116.3551 -55.9875 -1.4453
H 98.7459 -50.6953 6.8851
O 37.3360 -1.0036 31.7376
C -7.2272 13.4971 62.3920
O -55.0481 23.5619 63.1803
H -99.1318 34.1826 33.1449
O -106.6205 47.8666 -16.7565
F -77.3115 30.7430 -47.3908
F -30.3397 16.2140 -87.2278
15

O -24.2666 0.0379 -22.7771
C -12.0324 1.8672 -14.1191
C -2.2442 4.9391 -4.7171
C 7.9720 0.9691 9.5889
C 12.1449 3.8240 19.8586
C 8.5573 7.2103 22.7308
C 3.0343 5.0638 9.5691
C 0.9355 -6.2203 1.4955
C -0.4382 -11.1096 -4.7486
O -21.9572 -1.3915 -26.7926
H -12.2200 -3.7547 -25.6005
H -8.8561 -9.8113 -13.9931
F 17.8653 -3.7355 5.3463
H 15.5632 8.5358 24.1793
H 15.9420 3.5756 19.9797
20

H -22.9444 64.7813 -128.5031
F -17.8550 47.6981 -81.3947
O -9.7293 48.0932 -50.4905
N 11.7408 32.0814 8.2878
C 19.6589 -6.1188 64.8443
C 18.2660 -23.5969 96.5302
F -1.2164 -54.9479 75.4493
O -7.9628 -63.2317 49.6443
C 19.9856 -72.2847 16.7905
O -22.0474 67.3081 -146.3473
C -53.5535 100.2263 -156.7604
F -78.5023 130.3068 -179.7671
F -25.4931 93.0624 -107.6478
O 27.1571 37.5786 27.7545
F 69.2720 -32.6288 153.3221
O 163.1420 -153.6521 260.4335
F 210.8674 -254.5331 276.7757
C 122.5910 -200.0237 150.2191
F -35.5881 -49.8969 -19.1848
C -387.7883 289.7784 -309.9555
17

C -57.9952 -10.4990 56.8515
F -27.3662 -5.4850 35.7923
H -13.6702 -3.3813 20.3313
C 9.5512 4.3454 -14.1443
H 23.3464 1.8541 -34.0037
C 30.4436 6.9281 -34.5405
F 35.1606 8.9412 -31.1915
O 17.9660 -0.7817 -17.3903
H 1.8721 -4.1388 6.7891
H -57.2602 -8.0653 64.9190
C -50.3685 -10.5926 54.0043
H -50.0841 -13.9407 44.4791
H -12.3534 9.5378 -1.5365
O 18.1680 11.6845 -14.9212
C 40.9507 10.4773 -40.8569
H 49.0556 -2.7769 -48.3436
O 42.5836 5.8931 -46.2382
22

O 80.9135 -105.2742 -42.0281
C -16.3529 -71.6487 -0.6040
H -49.0335 -22.5695 49.2155
N -81.7885 5.8684 76.6538
C -51.9363 62.4012 -11.4591
H 3.6500 -9.5836 -107.9187
O 21.3724 -1.6391 -198.4789
F 105.2022 -2.6820 -71.5955
H 41.3188 20.8428 182.1330
N 41.7985 -69.6279 46.0431
H -13.9352 49.6867 115.0534
H -154.8559 40.5169 200.9510
H -137.6954 118.7963 159.7085
N -22.4013 104.4729 49.2872
H 39.1900 98.8704 65.3548
C -17.5885 12.1879 110.6369
F 67.9816 -27.6515 -63.7257
C 274.2095 -157.9286 -150.7577
O 460.4883 129.9053 -261.7581
F -59.0245 -282.7863 -201.8379
F -457.4379 42.2889 533.3345
C -74.0747 65.5536 -478.2078
23

C 149.1860 -18.5896 -25.3086
C 23.2701 -42.6071 -21.1719
H -47.9647 -107.5453 62.5969
C -29.8874 -14.5405 57.1002
C -7.2073 43.8415 82.7813
N -61.0990 100.5018 36.6467
F 26.0260 176.2162 -39.3289
C 16.1043 5.4888 -90.2766
C -108.7435 -249.9622 -237.6737
F 62.4496 24.3073 30.4652
F -26.4271 -15.8661 105.8125
N -193.6691 -62.6280 201.5415
O -4.6464 -88.8627 84.6195
C 216.7919 -34.5627 -22.6718
O 197.2010 -96.4209 -103.7167
O 26.0725 -54.6087 -65.8735
C -105.3830 273.7236 -101.4945
F 99.7672 277.2771 -60.4629
C 43.0359 410.9914 -98.3545
F 106.3521 -424.0853 164.0770
F 139.1825 -188.6604 210.8412
H -8.0561 490.1258 91.1666
H -512.3556 -403.5341 -261.3149
21

N 78.9806 -53.3854 -29.9135
H 41.5605 -40.3633 -25.9088
O 50.1981 -34.2624 -58.0503
C 36.1568 -30.1432 -76.0423
O 17.5949 -29.3100 -81.6748
N -39.6065 -26.6458 -58.7435
N -88.7434 -0.3765 8.1288
N -90.0948 77.9164 141.2193
H -27.3926 166.1916 276.9702
H 88.5885 -71.8247 -36.0151
N 45.2894 -72.2941 -64.0860
N 0.4016 -97.1431 -102.5341
N 38.5946 -0.4044 -135.5403
O 153.2976 76.9053 -132.0256
N 166.9382 124.6462 -44.8388
N 109.6157 37.3098 -1.0658
F -14.9048 -34.6251 -7.2297
H -211.7617 -143.9403 -58.4487
H -273.7828 -194.2317 -13.6951
C -261.1963 -169.1057 -135.9733
F 180.2662 515.0864 635.4674
21

N 120.9963 61.0759 182.6519
F 108.7098 34.9253 105.9354
O 113.5106 22.0019 20.9983
C 117.2864 74.9334 -38.2120
O 46.4916 44.3187 -96.0237
N -25.8543 37.2867 -43.6924
F -136.0773 -58.5115 -43.4036
F -260.0226 -120.3588 -58.1871
C -286.1827 -163.7837 -46.5347
N 144.7550 58.9592 218.7275
C 200.4234 68.7204 166.9849
H 248.6299 67.7903 105.3832
H 243.7417 53.3792 -55.7021
N 241.6937 22.1829 -131.0852
O 205.9777 45.2357 -216.7820
O 81.9104 184.6511 -88.7150
N -115.4876 236.1039 14.5070
C -226.7751 145.5723 195.5358
N -333.5988 -56.5469 236.2786
H -147.3320 -315.9816 -91.1589
N -342.7961 -441.9542 -337.5059
18

F -48.9289 -136.2208 10.0751
O -27.9699 -78.6264 0.2977
N -24.7681 -61.2921 -3.0414
H -1.0116 -21.8577 22.6961
F 21.2037 39.5694 18.2061
H 40.0528 82.7340 -0.0847
F 41.7704 108.1213 -19.3251
C 22.4402 90.2253 -15.3703
H 3.5176 28.1702 -31.9101
F -64.7926 -145.2894 7.4412
N -75.1912 -163.9258 -5.9400
H -53.6585 -154.3111 27.2652
N -48.3739 -60.9285 37.2158
C -2.2182 -35.9116 27.2535
N 18.8503 56.8989 1.7062
C 74.8564 123.2254 -2.2669
C 65.0457 167.4079 -40.5074
H 59.1757 162.0111 -33.7110
23

H 102.0553 -379.9648 224.7806
F 140.8375 -158.1672 179.7772
O 53.8932 148.9913 40.6678
O -131.3767 -17.4888 -119.7017
C -139.7023 19.0828 -53.0342
H -410.1762 48.1245 -59.9122
O 17.5313 -88.3893 107.0828
C -44.0112 -44.0309 -136.5627
C 11.6259 -363.0438 -31.2361
O 138.2932 -373.2331 110.9132
N -73.2675 -157.3618 -114.9310
N -245.7246 238.0104 -330.1270
C 266.7183 148.7416 -248.3319
O 174.8041 -158.1838 333.5189
F 76.8315 -401.8318 10.1852
O -382.2174 435.8806 -273.3611
C -544.7199 393.5374 -245.2910
C 35.7634 -102.9797 -375.8768
N 756.2170 -316.4201 574.4032
C 224.9222 367.0822 105.9521
O -107.4100 -623.1562 -102.7523
H -177.0711 969.7101 606.7031
H 256.1839 415.0904 -202.8661
19

O 141.5523 -150.9639 106.2327
C 81.5831 -92.9371 55.8977
C 55.2522 -62.5881 31.5296
N 8.3372 -29.4814 -6.5235
F -49.0890 21.2094 -43.8003
C -83.3651 86.1810 -63.7033
C -97.0484 108.4216 -62.9063
F -74.1591 99.3460 -39.1391
C -22.2247 57.5705 2.6590
F 155.1750 -163.3325 121.6579
F 158.6773 -159.0296 107.6514
H 134.4272 -149.0697 94.1819
F 64.2036 -82.0785 25.9763
H 10.7492 -38.5768 -19.5152
N -52.0765 16.6932 -60.4833
O -106.4397 90.4620 -89.8943
F -135.6595 156.6874 -78.6383
H -118.2601 170.8880 -60.4235
H -71.6351 120.5984 -20.7593
11

C -1.0906 -4.0489 -1.9474
C 0.4624 -2.4704 -2.0806
N -0.0956 -1.9233 -2.7065
C -0.2277 -0.0804 -0.4475
O 0.8044 1.8460 1.7668
C 0.5729 2.9315 1.3851
O 1.3962 3.0406 1.0616
C 0.0340 4.4155 3.4653
N -1.0225 4.2552 2.2737
H -1.0728 -3.1093 -1.0507
H 0.2394 -4.8564 -1.7199
23

N 24.7566 -124.2263 250.8107
F 19.9232 -78.5322 131.1527
F 33.1230 -33.3370 147.9028
C 83.3809 48.4343 -88.1131
F 93.0786 77.2597 -146.9357
H 57.9065 40.1985 -130.7194
C -36.8461 133.7851 -171.1170
F -270.1121 112.5932 -21.1279
H -356.6234 10.9553 78.6658
F 104.8892 -229.2952 195.4677
N 210.1132 -202.3534 89.2564
F 473.3007 -174.8436 207.0064
H 73.6453 -1.4619 212.9805
O -197.1910 -42.2452 11.6357
C 92.6433 203.3649 -182.1848
C 30.9044 166.0948 -237.8076
F -35.6979 165.0780 -535.7890
H -316.6663 556.4312 -233.3398
O -172.5617 -230.4351 -80.3741
N 159.3265 -223.8073 301.2522
O -294.0577 -28.3723 479.1403
H 181.5198 76.3571 25.3706
O 41.2452 -221.6427 -303.1333
17

N 44.4077 -149.1466 -35.3426
N 25.9915 -78.7153 -24.1005
C 13.9041 -18.0982 -22.7169
H 12.2467 31.9089 -21.6744
O -8.3521 67.1362 4.8123
O -22.2593 61.7168 31.0236
O -31.3625 70.3068 39.9227
F -51.6423 62.4020 18.9755
O -42.5228 27.3727 5.2243
F 50.6155 -171.6635 -46.2321
N 34.1810 -141.8031 -19.9483
H 17.9696 -151.1161 -31.2199
H 23.8468 -8.6012 17.8658
H 29.4149 36.5945 11.7163
O -17.9531 111.7394 34.9977
O -11.2322 131.7917 12.4105
O -67.2534 118.1750 24.2860
15

C -38.2598 -6.1852 28.0303
C -16.4727 -5.7329 17.2529
C -2.7860 -0.8615 6.1406
C 15.7331 5.2702 -4.8017
H 25.4817 5.1253 -15.3120
N 23.3157 1.5770 -19.4049
C 15.3891 1.3963 -10.0501
C 2.0803 6.2060 -14.2506
C -12.5054 -9.5484 -12.1657
H -41.6258 -3.2962 38.7307
C -34.7935 -0.1256 25.5757
F -20.8665 -10.2356 10.2737
H 13.9202 0.1813 -1.7046
N 40.9946 6.0564 -11.5990
C 30.3953 10.1730 -36.7153
18

O 22.3576 -41.9555 103.0233
C 11.5056 -24.0081 61.6931
C 6.0735 -13.1505 35.7074
C 1.5555 -6.7751 -2.9426
C -10.0097 7.4222 -40.5563
C -15.2451 20.3677 -62.5074
C -15.1062 26.2101 -64.3611
C -6.3475 29.2784 -44.8224
C 1.2536 16.1728 -15.6992
N 24.1092 -44.3743 110.8796
F 23.2266 -46.1227 106.6902
O 19.4869 -40.2113 98.8281
C 0.7259 -16.5722 41.9050
O -3.0385 -5.5015 -3.2852
O -14.2968 19.6643 -44.0955
H -13.1214 38.4769 -86.3602
H -16.2015 45.0094 -108.4859
C -16.9276 36.0693 -85.6108
17

F -32.8040 22.7672 -35.8532
C -19.8768 13.3781 -21.8349
C -8.7795 6.8960 -7.3653
N -5.9039 -2.8559 2.2662
C 13.3202 -8.4858 7.5985
O 20.6916 -17.0834 25.3029
F 24.6383 -10.1098 21.9746
F 18.9097 -9.9827 13.4884
C 5.5869 -4.7246 6.0100
H -37.0322 21.4744 -33.6333
F -35.8024 25.5025 -37.5942
N -48.7274 18.5837 -44.7153
H -9.1295 0.0456 -4.6491
C 5.0634 -2.6053 8.2367
F 29.1008 -14.4505 32.9296
O 45.5040 -20.1350 39.5976
H 35.2407 -18.2144 28.2409
18

H 226.3754 58.0508 51.7491
C 124.3548 32.6323 38.7966
C 68.6178 21.9155 26.7128
F -1.4217 -17.6618 4.2838
F -92.6689 -42.0867 -19.5001
C -149.3049 -36.9624 -21.0375
C -145.8700 -31.1580 -43.7433
H -103.0618 -25.8800 -32.3410
C -16.7665 26.2055 -28.1896
C 259.1174 73.9826 54.1315
F 241.5772 61.0467 52.4236
N 216.0855 48.5835 55.0525
C 79.5615 6.8222 35.6233
N -5.4961 -12.1348 19.4283
N -123.4004 -40.6681 -0.9140
C -197.2717 -65.0136 -28.0740
N -206.6722 -46.3146 -102.0889
H -173.7555 -11.3592 -62.3132
17

F 24.4715 114.0442 -4.0638
F 23.1245 64.6814 -7.5813
O 12.4693 28.2560 2.6252
C 4.0694 -2.6922 -1.5545
O -7.2491 -52.5441 2.8194
C -19.5434 -76.4664 4.7746
F -20.4253 -61.9413 -2.7488
C -13.0180 -40.7668 1.2052
C -14.8956 -9.8936 3.7678
N 19.0744 121.4693 1.2492
F 15.9526 109.8723 1.2896
C 24.5932 86.5198 6.8708
H 3.9405 38.9145 22.5091
O 10.2367 -52.2731 -3.8497
O -22.2485 -84.6304 -13.1098
N -8.6323 -101.2922 -8.0131
O -31.9199 -81.2572 -6.1900
16

C 1.6986 -21.9068 34.3420
N 3.2169 -12.2085 14.9773
C 0.1957 -7.7148 3.4568
C -2.7143 -3.0991 -4.5980
C -6.8507 3.2957 -19.0411
H -4.5440 13.9142 -25.9344
F -2.7336 20.3660 -22.0609
C -0.6847 12.2471 -10.9890
C -0.4193 -0.0186 -2.3933
H -1.6616 -22.2999 40.3728
H 3.8655 -20.6886 37.8538
H 3.4389 -13.2302 29.6428
F 1.6119 -7.4097 -2.2098
H -2.8472 9.9222 -9.7920
O 6.7597 25.8287 -34.0616
N 1.6683 23.0025 -29.5655
18

C 73.4857 47.5489 -216.7479
N 49.9697 31.3287 -136.4101
H 28.1488 19.0647 -71.3949
N 13.5405 12.1395 1.5511
H -29.3029 -19.3412 89.9254
N -45.5990 -36.5402 141.3171
F -44.6544 -40.0983 134.8481
C -39.7003 -31.3726 91.4630
H -11.8049 -1.2537 4.4209
N 78.9698 58.7560 -233.8275
F 74.0246 60.2461 -228.6482
C 64.3424 62.1242 -193.4690
O 29.0896 25.3183 -68.6378
N 11.3669 -0.4569 36.4236
C -33.4056 -25.7721 129.2962
O -73.2733 -48.4477 193.4850
O -84.2165 -62.4312 178.2340
C -60.9811 -50.8125 148.1709
20

O -33.1255 177.3149 49.1725
C -36.9141 101.2028 32.3844
N -52.7271 49.5729 24.6361
F -58.9699 -1.3278 -0.7908
F -49.7910 -33.5886 -16.6214
N 2.6599 -77.8715 -47.6243
C 55.3682 -116.2450 -60.6361
F 98.8173 -94.4905 -64.1460
H 122.2285 -24.3383 16.6884
F 0.2422 161.5612 67.9716
F -59.1429 142.0015 80.1762
N -126.3397 83.3891 77.9692
C -123.9363 33.3718 39.5561
F -131.4739 63.5770 -12.1082
N -83.0317 43.3886 -30.5980
C -8.6518 53.5299 -40.7532
F 82.7463 41.8371 -67.8187
H 187.2617 -35.7171 -20.6425
F 208.6569 -155.7746 -11.2771
H 6.1230 -411.3933 -15.5381
16

N -46.6483 35.7996 -162.6996
H -36.9860 21.4270 -94.2665
H -5.6968 -0.5875 -34.7537
N 25.8968 -22.0641 24.7434
C 29.1628 -24.2437 77.8706
N 43.3017 -10.1222 102.5827
F 22.0994 -8.7359 93.5804
C -19.8969 -14.6751 75.9079
H -22.8972 -5.5097 10.9182
O -60.7472 52.2766 -179.2632
F -28.5308 6.7146 -157.9547
C -48.3293 23.7903 -140.1159
H 14.2051 -15.4203 1.1526
N 49.8872 -12.0225 96.0790
O 54.2195 -15.0949 134.4886
O 30.9598 -11.5324 151.7301
20

C 43.0939 -14.5088 253.4080
F 30.2304 -13.2073 153.1338
C 27.1750 -13.6237 102.1043
N 0.2583 -10.0002 28.8162
O -20.5677 -2.0470 -53.7361
N -25.4946 9.9833 -135.1920
F -20.3665 8.6377 -185.1159
O -22.6730 8.7929 -172.5038
C -30.1809 23.6939 -54.6337
H 60.2191 -12.2548 278.5727
N 64.9186 -8.1545 255.9704
F 85.3065 -34.5086 208.9739
F 41.7683 -26.9746 73.2882
C 13.8525 -3.6712 62.5732
N -19.4980 27.2989 47.1523
O -86.5409 59.5940 46.1477
N -157.2169 81.3718 -47.9119
C -121.5538 37.5959 -177.1681
F -49.3395 -9.6757 -277.6492
C 186.6093 -108.3419 -406.2300
19

N 119.1177 1.6335 -32.0893
C 75.8034 1.6379 -26.2589
H 51.6049 9.2493 -23.2015
H 10.7310 7.6787 -15.9577
O -36.0022 2.3385 -1.8826
H -69.0128 -8.2118 19.4685
C -84.2241 -14.5151 33.9184
C -73.9840 -10.9236 36.7662
C -28.4607 -8.0202 27.0871
F 131.8632 -1.6334 -31.1937
H 136.3139 5.9235 -36.5377
H 122.7355 4.3754 -46.4288
H 68.6248 16.3520 -51.7430
H 22.6289 22.7207 -33.8997
O -39.6817 27.2641 -7.7149
C -85.0770 8.9009 17.9474
O -125.0640 -1.0603 51.6325
C -117.2753 -27.7704 64.5616
H -80.6414 -35.9398 55.5259
17

C -94.7212 6.2884 22.8903
O -53.6333 -1.5249 13.3305
C -28.4289 -10.5518 13.7441
F 9.0233 -7.3521 -10.8258
O 42.1666 -3.7552 -17.6088
O 58.5214 4.3697 -5.2357
O 62.7413 13.2215 -11.1148
F 34.2976 8.4637 -18.2138
C 5.1187 0.1388 -2.4982
F -101.4305 0.5386 31.6413
F -105.7648 4.7193 25.2797
N -91.3880 -4.2653 20.7023
C -6.4931 -6.7968 10.1566
C 27.5901 -12.3037 -8.3214
O 64.6437 4.3977 -19.0002
H 89.6970 4.7723 -22.5025
F 88.0603 -0.3603 -22.4237
18

N 20.2398 -113.2374 -185.2913
O 9.7974 -59.0350 -116.3088
N -0.3754 -40.4958 -76.0421
O 18.9627 -4.3512 -2.9148
H 2.4637 43.4327 74.6348
N -12.4683 63.0762 126.5634
F -12.1445 79.9343 119.0022
N -16.0041 47.6072 78.5871
C -6.3615 16.3572 3.8780
O 11.7749 -121.6958 -205.8402
N 11.8330 -117.8540 -196.8320
H 5.4145 -109.6080 -182.1225
H 18.8926 -41.9655 -71.0128
F 4.4704 -7.8646 42.9337
N 0.3526 52.5013 117.4456
O -21.3658 101.7098 175.5145
O -19.3342 120.4271 174.7274
N -16.1478 91.0613 123.0779
16

N -13.5922 18.0624 10.8907
C -7.3558 11.0143 5.9670
C -2.0686 4.1296 1.5264
C 5.1307 -2.2256 -1.3402
O 9.0513 -8.0825 -6.6489
N 9.6460 -12.3850 -9.9668
F 6.7185 -10.3073 -6.6677
N 2.1398 -6.6212 -4.2700
C -2.3377 -3.8399 -1.3088
H -14.6549 19.2918 14.3044
H -14.6423 17.6850 10.8116
H -14.4192 14.5367 9.8314
H -0.8777 1.6911 -0.5137
H 12.2112 -11.1377 -3.6028
O 12.0897 -16.8007 -8.6679
H 12.9610 -15.0110 -10.3447
19

C -15.9213 61.7080 -53.1363
C -9.6074 37.6120 -33.2823
C -6.6024 26.6666 -26.1472
C -2.2868 8.9050 -9.4904
O 4.3570 -13.3626 12.3657
C 9.5005 -34.5143 31.0146
N 12.0325 -45.3600 41.5052
C 8.4993 -40.2529 37.3258
C 2.7589 -20.2527 19.2122
H -16.9114 66.9560 -57.1758
H -19.0890 66.2716 -59.1040
H -18.5367 61.2107 -57.4723
H -11.2591 31.8283 -36.7817
H -3.1664 13.6435 -22.3445
H 2.4349 -8.6844 5.5820
H 12.3743 -34.5661 35.9909
N 17.3355 -59.1635 59.4906
H 19.0221 -66.4760 65.7019
H 15.0657 -52.1693 46.7458
15

C -18.9497 -6.0172 7.7223
F -7.9417 -0.7764 0.7135
C 1.8988 3.2127 -2.5990
O 8.3986 1.2684 -3.2308
O 8.9997 -0.3702 -2.8792
C 7.2598 -0.1963 -2.1142
O 5.1494 -1.9636 0.5392
C 7.6292 -2.3666 -2.2715
C 6.4870 -4.5609 -8.1607
H -22.1896 -9.5209 13.5213
N -20.8098 0.3063 10.0054
H -20.0131 -6.3922 3.1163
H 3.7375 16.3372 -14.4517
H 26.4006 16.4496 0.8715
H 13.9431 -5.4100 -0.7823
17

C -20.0385 28.7055 -5.9859
O -10.2513 17.2868 -5.1538
C -4.0270 8.8541 -1.5525
N 2.5412 -1.5971 -1.5401
C 9.8117 -12.3989 1.0816
O 10.5015 -21.3806 7.2837
O 11.4926 -19.3708 6.1913
C 7.4432 -15.3907 0.7323
C 1.6328 -3.0194 -0.2510
F -22.8187 27.6246 -4.8832
C -20.4924 31.1731 -2.0276
H -20.9415 26.0858 -6.8338
H -2.1751 12.5489 -1.0509
H 10.4874 -6.5211 1.4713
O 14.3208 -16.8916 4.5018
N 18.8769 -29.2079 4.0837
H 13.6364 -26.5008 3.9331
15

C -6.4231 11.8364 -1.4742
C -3.6121 5.7222 -0.0103
C -2.7524 1.0556 -0.0335
C 1.7864 -3.7247 0.4375
C 4.9535 -7.0668 1.1365
C 6.5130 -8.3398 1.1013
O 5.5090 -5.6408 -0.4070
C 1.1424 -3.8849 -0.9393
C -0.7231 -1.0208 -4.3131
H -11.0784 12.8311 -2.1824
H -7.0535 12.5089 -1.9197
H -3.7695 7.0797 -0.2337
H 2.9912 -0.9977 1.8112
H 6.1687 -10.1043 5.9185
O 6.3481 -10.2540 1.1082
15

N -47.0699 -20.7386 0.6036
C -26.6901 -9.6237 0.5758
H -9.1010 0.0465 -2.6915
O 0.6593 7.2891 -5.4458
C 12.2509 12.7437 -3.1470
N 19.9250 14.8965 -3.8917
C 19.3803 9.8541 0.4128
O 22.1846 12.0972 1.0375
H 3.3659 0.1386 5.1107
N -55.5853 -22.9500 7.8747
N -38.5838 -32.5865 4.2228
H -13.4176 -26.7577 -12.1454
H 18.1751 9.0632 11.7479
O 58.1836 21.5530 5.4522
H 36.3230 24.9748 -9.7168
11

C -2.3680 1.9367 -3.1676
C -0.9865 1.1587 -1.1483
C -0.0701 0.0360 0.9571
C 0.9290 -1.4174 2.5091
C 2.6825 -2.1100 1.0545
N 3.3517 -1.2226 2.1543
C 1.9927 -0.7274 1.0628
C 0.6381 -0.0198 0.1149
C -0.4649 0.5370 0.4614
H -2.4320 1.6805 -2.8475
H -3.2726 0.1483 -1.1507
13

C -4.0490 2.8527 2.7628
C -1.9096 0.6490 1.2008
C -0.1512 -0.0381 -0.0160
N 1.7831 -1.0304 -0.5662
C 2.6241 -2.3437 -2.0950
O 4.7273 -2.1715 -2.4804
O 4.1881 -2.3363 -1.2058
C 1.4009 -1.6312 -2.1837
N -0.9641 -2.1630 -1.2069
H -3.4003 4.2406 3.9476
H -3.7334 4.4975 3.2410
H 0.0459 1.9787 0.6123
H -0.5618 -2.5043 -2.0105
16

O 61.8289 -8.6323 84.2262
H 38.9010 -5.5040 30.8794
N 32.2476 1.5073 25.4342
N -15.0321 -9.9654 -4.6248
F -37.4777 -11.2619 -54.7418
N -35.4949 -2.0707 -72.4951
O -65.1565 20.1354 -60.6338
C -28.5656 9.5825 -39.5823
C -8.0013 -3.3779 1.0073
O 45.2039 -18.4911 98.0720
H 82.7748 -11.4968 93.1410
N 58.1076 17.1797 70.9467
F 4.5521 -1.2701 -13.9280
H -20.8023 5.7976 -19.6660
H -50.3330 30.0225 -75.1479
N -62.7525 -12.1548 -62.8870
19

O -148.5966 -87.7187 84.0494
F -85.3141 -51.9886 59.7315
F -82.8094 -35.6224 95.7817
C -31.2063 -12.2567 84.9756
H 25.1617 18.6857 33.4336
C 86.8182 50.2336 -40.9720
F 124.1597 66.0480 -120.1897
O 117.9046 49.4717 -155.0717
N 82.5437 26.4690 -130.8458
N -152.5840 -86.6631 88.5519
C -171.6311 -93.4313 123.7671
C -170.4227 -76.7493 149.7412
F -111.7810 -42.4078 195.7243
O -80.2079 -14.1756 199.9872
C -14.1116 2.2533 121.4653
N 70.1560 40.0004 0.3518
C 139.7488 72.0268 -185.7030
C 196.9467 81.5023 -282.1228
F 205.2254 94.3228 -322.6558
21

H -103.6259 -25.8841 -57.5572
C -85.2586 -5.5404 -22.6847
H -131.1984 -21.3211 19.3816
F -114.2674 -48.1381 42.0287
F -75.9969 -46.5716 69.7523
C 21.6369 -27.7190 101.8188
F 115.5381 37.5573 -9.9509
F 222.9809 111.3119 -67.1820
C 226.0246 118.5109 -133.9854
F -121.2225 -49.6859 -32.6903
N -182.0206 -43.5130 -25.6273
N -245.9275 -14.4088 11.1469
H -263.5801 -32.6686 16.4126
C -241.0117 -148.6308 51.6466
C -137.3406 -241.6338 61.5325
C 120.4046 -204.9200 59.1501
F 342.6568 -100.7083 70.9671
N 479.2919 81.9141 175.5628
H 393.2870 292.2941 71.2646
N -269.0460 223.9658 -51.3644
O 48.6756 145.7894 -349.6223
23

H -13.1369 148.3396 -133.9970
F -12.2155 44.6521 -155.2088
C 68.4128 35.2871 -203.9577
N 122.0197 76.0383 -153.0555
O 69.5396 -9.2467 -28.3684
C 26.2201 -28.2247 29.6185
F -88.1358 -150.3922 87.0589
O -191.6717 -61.5371 132.8925
C -355.2136 20.1587 328.5605
F -76.1775 118.6936 -114.6784
N 201.8349 86.1182 -81.6445
F 261.4519 0.8710 -88.6340
F 237.6326 390.1311 -241.0918
H 280.6293 307.0426 -269.8499
N 76.0905 40.4333 -54.5052
N 125.4291 -523.7419 -160.5164
H -62.2652 -491.5392 -234.1015
C -128.4953 -264.2591 -210.8315
O -226.7857 19.9026 -146.0976
C 112.6731 54.5550 -49.7146
H -186.1303 589.9683 451.5461
O -28.5296 -111.6357 456.7212
C -213.1764 -291.6148 839.8552
15

N 15.3208 -4.3599 22.7679
C 9.1650 -0.9838 12.1120
C 1.1812 -3.1860 3.5892
C -4.4033 1.7576 -4.6634
C -7.8606 4.7155 -11.7763
O -8.5060 4.9966 -14.5587
O -11.9865 2.1058 -13.2517
C -9.3955 0.1206 -9.2825
C -2.0073 0.5687 -0.0493
H 16.7772 -4.1747 22.5261
H 13.8643 -5.6708 15.8580
H 8.2451 -8.4665 18.7526
H -5.9012 3.2479 -5.2118
H -7.4309 4.0834 -15.5095
H -7.0622 5.2455 -21.3027
18

F 45.0470 27.2710 69.5181
C 25.7195 18.2808 38.4451
F 14.0474 14.9231 19.9071
C -4.0286 -2.4607 -8.1643
F -19.0705 -15.5371 -30.8162
H -29.0966 -21.0814 -45.7958
C -30.9735 -23.2583 -43.2397
N -20.9206 -13.8874 -21.6456
C -2.3556 -1.2076 7.9878
C 49.3606 35.4261 75.1557
H 51.6650 33.5939 66.9821
C 42.6185 34.7123 61.1904
F 9.6064 15.7989 11.1305
O -6.5360 -0.1486 -22.4688
N -24.3479 -18.3746 -47.4725
C -34.7367 -30.2646 -55.8923
O -39.1726 -28.9576 -47.3142
H -26.8256 -24.8283 -27.5072
18

N 13.2342 -70.0849 -11.8897
O 8.7360 -40.9579 -6.9975
N 6.1385 -21.6324 -5.4563
H 4.4886 2.3884 -1.8230
O -1.5211 31.0728 1.0656
H -12.3459 43.4316 5.4211
F -14.0391 43.0793 7.3616
C -11.8902 32.0424 10.0975
N -0.4210 7.7469 6.6984
F 16.1650 -80.4018 -14.6977
N 13.5034 -75.6487 -8.4955
H 9.2752 -66.8161 -10.5491
H 8.6740 -22.1768 -5.9948
H 7.9865 7.8296 -0.2601
N -1.0556 36.5346 -0.9380
O -12.4860 59.7398 8.8624
O -19.4560 66.4021 10.9511
F -14.9863 47.4511 16.6441
19

F -116.7031 -127.5527 -87.4297
C -74.1104 -78.3454 -51.6278
F -51.6446 -56.4811 -27.2719
N -17.7667 -21.3194 10.0667
H 31.9001 31.3312 38.5288
N 69.2634 76.1708 54.2581
F 88.1793 98.1316 43.4772
N 79.4883 83.7077 24.6008
F 43.6643 40.9544 -10.4059
O -127.2717 -136.3253 -90.8230
F -129.9363 -141.4477 -87.3921
N -136.9035 -131.0005 -76.6648
N -70.8371 -76.7435 -11.4383
O -36.5137 -35.8688 31.4242
O 22.1417 19.0815 61.7755
O 81.5834 83.6175 84.8260
C 120.3770 128.2447 67.8737
F 125.7230 135.7777 34.8060
F 99.3664 108.0673 -8.5837
19

F 16.0378 62.2865 69.8764
F 19.7060 43.7434 38.0786
H 17.2052 32.9554 -1.2014
C 9.7295 17.9862 -29.2597
H 4.4455 -6.7601 -55.3752
H -11.3930 -36.9426 -41.3782
F -18.3087 -59.7449 -20.1402
O -31.9614 -55.5922 12.8516
C -31.4396 -32.1152 42.2402
H 19.4171 73.2410 80.2483
C 31.2566 74.5288 59.5332
O 33.7683 72.6076 37.1839
F 30.6751 55.1756 -27.6045
N 35.1368 28.9661 -67.2307
O 14.8421 -0.6527 -100.7734
N -7.9204 -34.1851 -82.0040
N -34.8418 -64.7162 -37.9833
C -44.3123 -86.2031 33.5661
N -52.0428 -84.5786 89.3727
18

C -33.1346 1.7996 53.9204
N -18.5843 0.7903 31.9259
F -10.9165 0.2927 18.3326
C 1.0208 1.5796 -1.4020
H 12.9146 -1.1575 -21.9222
H 20.2471 -0.7609 -32.7077
F 20.8383 -0.1822 -31.6353
N 17.9399 -1.5770 -25.2477
C 8.2903 -3.1309 -4.2573
H -36.3288 2.8133 58.7379
C -36.1438 3.4300 57.9572
H -30.9587 2.2959 49.8201
H -13.6810 2.4728 18.6248
N -2.0430 0.0250 -6.7408
N 16.1494 -0.4981 -28.9734
H 28.9492 -1.4478 -46.2229
O 28.1384 -0.2335 -51.5934
F 27.3026 -6.5113 -38.6163
22

F 85.6651 -164.2571 -89.7137
F 120.8865 -32.5649 -72.0302
N 77.6405 82.7613 -34.4036
H -180.0660 52.3148 -296.6733
H -53.9343 -211.9443 -227.9067
O -259.9297 -336.1098 -241.1155
N 48.1565 -390.9784 146.4882
C -196.3360 14.4200 221.5665
C -285.2589 347.2744 569.5995
O 68.8413 5.8924 -149.2842
F 128.6171 216.7053 -275.2202
N 268.4989 704.8557 -312.9558
C -95.0360 386.0589 5.6188
F -246.9147 -512.6556 286.1880
O 471.8932 -681.2120 -9.2897
F 482.2086 -77.4023 192.7744
C 124.1742 163.4347 -180.0778
O -485.3699 -175.9397 -156.6879
O -171.3476 758.5817 222.7906
C 537.5253 -222.4088 267.9113
C -555.6263 -162.8555 -98.1362
H 115.7121 236.0291 230.5576
21

H 41.1264 -112.3691 -113.2996
C 18.5729 -67.6940 -79.5740
C 4.3767 -53.0362 -74.6960
F -10.4864 -6.1218 -61.9274
C -6.4143 41.2513 -24.2610
H -18.0958 61.8865 40.6089
N -29.2131 48.4085 88.3117
O -20.0366 48.5188 141.0572
C 23.9405 37.8763 153.1668
F 43.9914 -124.7760 -118.2055
N 0.1609 -129.8878 -128.0891
H -71.3965 -149.8976 -133.8747
F -77.5925 -59.7286 -137.5201
N 21.7715 40.7308 -136.8273
H 104.2295 138.1656 -93.5611
O 184.9524 243.7990 -22.1862
N 199.0747 294.4402 68.6117
H 79.6872 165.1127 145.1908
C -65.8629 -15.9575 219.7679
F -378.5795 -439.9146 79.9776
O -44.2064 39.1934 187.3292
16

F 11.5767 24.1256 -79.2271
N 4.0399 15.1152 -47.4059
C -4.3767 7.6220 -17.2017
C 5.4436 -10.5612 18.7374
H -3.8357 -25.1316 49.7701
N -8.6945 -19.7600 53.8302
F -10.9382 -14.7602 45.2572
N -12.9671 -10.8458 30.0295
H -7.3492 -3.8838 -3.5704
N 17.5580 29.3190 -85.8719
H 12.1384 13.6593 -87.3906
C 11.4878 23.2365 -60.1428
H -3.1188 -3.3373 -10.7493
N 1.7466 -3.8821 36.0449
O 0.4424 -5.8943 69.1199
H -13.1533 -15.0213 88.7707
18

H 105.6477 -79.3436 32.3939
O 58.2846 -50.1485 16.4343
N 34.2389 -25.3061 6.3495
N 2.0708 -2.2779 -6.2009
O -34.4396 23.1459 -16.6679
H -59.6086 42.8958 -15.6799
O -66.9681 42.4532 -16.7283
F -59.1317 36.7551 -9.0159
C -7.7959 23.1588 3.4069
F 120.1417 -84.4668 37.7739
O 109.9573 -82.4931 24.3150
H 92.0835 -74.8090 25.0661
C 26.1362 -25.3021 0.7752
O -6.2404 -0.8067 -7.2648
H -49.6769 33.6031 -13.9628
N -82.2821 69.0168 -18.9733
F -102.8032 85.3312 -24.6311
C -79.6141 68.5941 -17.3898
14

N -4.0854 -3.9478 11.7802
C -1.7643 -2.1803 5.5881
O 0.1957 -0.3530 -0.3047
O 1.3288 -0.2127 -4.1153
C 2.3242 -0.3667 -8.6664
C 0.0070 2.6410 -10.3722
C -1.3513 3.8249 -8.5915
C 1.0248 4.9371 -3.9492
H -0.4206 1.8653 1.5107
H -4.0364 -4.3851 12.9185
H -2.1763 -3.7744 11.9011
H 1.9832 -4.1798 5.7034
H 3.7402 2.2776 -5.2124
H 3.2305 3.8539 -8.1902
19

F 183.9897 67.8223 -49.4225
N 113.0109 40.7226 -30.4351
C 67.7501 34.6028 -15.9859
N 14.2935 13.2883 -1.3619
H -64.5168 -18.4942 18.3626
N -113.6369 -51.1669 32.1373
C -120.4268 -55.8695 24.1895
O -94.5367 -40.0586 18.2617
H -22.2087 -8.2560 6.4855
F 203.8230 73.9577 -53.0150
F 203.9323 80.9469 -52.2428
N 183.6469 68.3945 -44.9734
F 87.6543 46.3253 -15.9916
C 16.2775 10.5721 -1.3347
C -66.9785 -39.6284 34.1727
O -151.8632 -61.9807 47.5065
H -180.1854 -75.8624 40.2340
N -162.4896 -55.7286 43.2746
H -97.5356 -29.5871 0.1385
23

N -25.3088 -115.1944 60.8725
F -22.0630 -129.0242 13.6870
N -9.5908 -153.4244 57.5156
C 1.9903 -64.0472 104.4445
N 20.8732 86.5352 0.0058
N 25.7570 112.9365 -64.3855
O 30.9639 196.9807 -74.7792
F 97.1468 74.1470 -29.1959
C -54.9070 19.0779 -113.6269
N 22.0149 -56.4301 112.9225
F 49.5422 -73.3145 73.0107
H -60.0807 -234.4279 31.9108
H -4.7583 -105.6083 164.9198
N 179.5815 364.2586 208.8499
H 69.9822 516.3340 -12.6817
N -152.9228 42.8482 -138.2190
N 59.0279 -251.6063 -544.9366
C 144.4124 -328.6836 -505.2238
F 427.3316 -4.3110 7.0792
F -337.4360 -257.9104 282.1463
C -263.5386 318.9025 330.7292
C 83.6545 92.7824 281.0036
O -281.6723 -50.8207 -246.0490
16

F -17.2413 49.8185 -42.4970
F -14.2515 25.5583 -26.2069
C -4.7652 8.8921 -8.8737
O 5.5153 -12.7314 6.8078
C 9.6378 -30.0074 19.3287
N 20.1278 -38.8053 24.5462
F 14.1348 -25.1597 29.6614
C -3.5051 -23.9078 23.3834
C -6.3686 -2.4106 -3.8582
F -29.6727 58.0942 -57.8885
H -18.0104 46.8092 -37.2433
N -16.8945 37.4884 -37.1816
H -3.6239 7.3998 -0.1966
H 15.5165 -25.3926 22.5992
O 22.9969 -35.8109 36.4900
O 26.4041 -39.8348 51.1292
21

N -31.7950 -88.2485 -249.7202
H -32.9123 -51.1021 -134.7077
C 40.7269 -21.4417 -89.2675
N 58.9463 -3.5102 28.0939
C 41.0769 43.4428 117.2570
O 12.0238 41.2330 153.2126
O -30.9040 34.0411 151.1407
F -67.5477 28.8372 60.6268
C -82.8756 27.4641 -80.9687
O -49.3709 -74.8729 -242.7814
F -0.3256 -104.4921 -197.3202
C 41.2595 -95.8814 -137.5779
H 151.9753 23.0158 6.8345
O 167.2946 44.3929 90.6711
O 96.2319 69.7646 90.4204
O -50.2983 84.2334 68.8138
N -220.1699 105.3315 31.4277
H -248.1248 30.1326 80.3964
F -128.6864 -8.8941 104.2363
H 215.6076 -122.4095 306.5139
H 117.8675 38.9634 -157.3013
21

O -19.4547 142.8672 56.7299
F -7.8086 87.1519 30.2059
H 22.7617 72.0482 -37.7547
N 21.2041 36.8200 -88.7214
O 26.8501 -39.7983 -114.8464
N -4.3733 -133.7097 -93.9404
N -40.3210 -176.4702 -32.6477
O -32.9195 -97.7775 105.6921
H 9.1578 65.2729 268.5746
H -23.2877 148.0850 66.2625
N -37.8883 129.6321 22.4112
N -44.2317 75.7136 -30.2650
H 40.3473 145.8664 -122.6155
C 174.7629 221.7154 -164.0916
N 194.5414 231.2968 -108.9211
C 112.8144 70.4433 -79.5539
N -66.0085 -83.5473 -67.7789
C -281.3060 -336.5476 -46.3821
H -285.6641 -504.1221 25.7766
C -104.5278 -503.8586 -137.9396
F 345.3516 448.9185 549.8055
17

F 15.7758 52.3142 -96.5205
F 12.2325 32.0713 -58.2286
H -1.9270 18.6420 -22.7289
C -7.3951 -5.6711 12.4120
C -13.7424 -30.7309 40.3161
N -13.6890 -42.2207 66.7875
F -15.0047 -37.8565 66.7236
C -12.9033 -28.5612 42.5740
N 4.1952 0.3078 2.5287
N 25.9961 66.4413 -120.3866
H 28.2661 74.0600 -109.0382
N 18.3172 56.0288 -89.7968
H 11.5721 10.7109 -13.5863
N 1.8371 -6.7992 27.0419
O -9.5607 -50.7873 75.2743
N -20.5280 -60.5738 103.3545
C -23.4418 -47.3753 73.2734
16

O -77.3790 -78.4221 -40.3888
C -51.0687 -35.8969 -23.1745
F -12.8143 -12.5423 -17.9809
N 4.0402 16.2837 -11.2135
C 23.3188 52.4547 4.9151
N 45.8661 60.4388 12.9112
N 42.9792 41.8828 23.2145
F 18.4542 28.2342 23.3584
H -3.8459 2.3648 16.0514
O -92.7077 -72.3423 -27.4405
N -65.4158 -106.3976 -20.9028
N -43.7257 -56.5120 -31.8690
H 22.1092 11.6988 16.9054
O 67.9728 38.9624 23.7234
N 77.3290 56.9368 21.3678
N 44.8876 52.8562 30.5230
16

O 50.6405 44.1380 1.5922
F 32.4292 23.2100 -0.9746
H 17.5535 6.4725 5.3225
F -10.6141 -9.5095 -2.2736
H -35.0528 -24.8981 -2.8126
N -33.1501 -31.6452 -15.5218
N -28.4412 -24.5481 -9.3113
C -23.6241 -7.1254 -4.1841
N -3.7417 7.4636 0.9475
F 53.1096 40.9343 3.7405
H 60.8932 32.5113 7.2793
N 44.0855 30.8369 11.0386
H -7.4298 7.4487 -3.2313
N -21.9707 -27.0094 -2.5529
N -46.2828 -29.5669 2.9256
N -48.4043 -38.7129 8.0159
18

O -84.5239 35.2614 -34.2378
O -53.7115 21.8844 -22.1569
C -30.7989 15.1684 -17.0635
N 5.9846 0.6770 1.8806
C 40.2097 -13.4659 13.1584
N 56.2287 -16.6162 23.0660
F 51.9330 -31.3671 22.5301
F 40.9239 -22.3819 14.6436
C 12.3544 -10.8948 9.3408
F -92.4087 43.6743 -38.1018
F -93.3769 43.0355 -39.1732
N -83.9686 37.7848 -30.0288
C -31.9238 14.3424 -6.1018
C -0.7259 2.3552 11.2521
O 38.0065 -5.4022 17.2460
O 78.5638 -28.1011 29.6670
F 85.9189 -42.3295 25.8611
F 61.3149 -43.6246 18.2181
21

H 137.8258 141.0189 -116.2531
C 96.7422 81.3166 -63.6659
C 101.9164 119.1545 -8.7211
O 33.8557 87.6116 88.3739
F -34.5574 29.8887 165.5191
C -146.0450 -55.1445 167.1426
O -180.6747 -142.3496 40.5547
F -118.1314 -177.9620 -105.1652
C 38.1745 -142.9511 -248.2292
O 148.7507 135.7094 -119.4465
F 149.3646 157.2110 -98.8085
H 132.4943 159.4092 -93.1985
H 146.3118 195.4452 57.0507
F 128.6327 175.6144 229.0689
N 73.5075 87.6087 273.7343
F 11.3566 2.8922 278.3085
O -105.7573 -118.4085 210.3036
H -311.6510 -256.5639 97.9216
F -337.3005 -283.1629 -121.9576
O -328.9383 -122.3551 -177.2085
H 364.1228 -73.9825 -455.3240
16

F -11.9093 15.4641 69.4815
N -3.2056 9.2964 44.0235
F -6.6674 6.2160 16.0683
O 9.2153 -9.4197 -11.8100
F 1.8691 -21.2725 -29.4842
F 5.1617 -5.8570 -51.5538
C 9.2783 -7.8149 -42.9878
N 11.2649 -8.9492 -21.2720
C -9.0780 2.8337 4.3497
N -15.4625 24.7027 78.0714
C -7.5975 18.2046 65.1698
O -20.5826 14.3709 66.9923
H -4.2846 6.5560 -2.4962
O 9.3637 -4.5963 -55.2852
O 21.9955 -24.6733 -61.0736
O 10.6391 -15.0617 -68.1936
15

C -17.0535 -6.3533 26.0784
C -4.6426 -3.2895 13.2730
O 2.5480 4.5147 1.0874
O 8.2135 10.8635 -6.0755
C 7.6173 8.0207 -12.0323
N 3.8913 2.1199 -15.3114
C 3.9534 -5.0422 -9.4695
C 7.3577 -8.5915 -8.1779
N 3.4887 -10.4613 -3.2582
H -24.0286 -4.5511 30.6151
C -11.5094 -7.9142 28.9431
F -7.2467 -4.1891 24.3719
H 12.3021 0.3785 -4.4410
O 15.5329 8.7022 -31.7067
O -0.4241 15.7928 -33.8964
21

N -102.6834 -66.7607 -119.0388
H -57.8400 -29.3703 -45.9623
C -48.4016 31.2037 25.1991
O -11.7472 50.6043 78.1289
H 21.4053 72.5235 122.7003
N 23.8710 46.2120 102.2943
F 38.6957 0.6245 8.6969
O 62.0793 -53.6711 -95.4969
C 122.4188 -69.3230 -217.4103
O -135.4136 -75.1029 -125.0973
N -143.3589 -65.5545 -37.8495
H -144.6491 -40.4161 43.8004
H -56.5167 92.9008 225.7402
O -26.5288 152.8138 295.5664
O 56.1550 124.4884 136.1786
O 118.7430 114.5483 -94.5874
N 159.3583 69.4582 -249.8071
H 42.4720 -68.1608 -237.1640
H -26.8627 -165.3739 -161.7277
H -240.9940 -132.5624 489.2187
F 349.7975 10.9184 -143.3826
19

O 0.7510 -220.7120 -19.3450
F 0.0605 -130.4311 -12.0796
F -24.0447 -95.7819 69.0324
N -20.6440 -27.2570 85.8710
H -21.0548 44.1930 79.5035
H 0.5794 116.9957 20.3877
F 25.3636 153.2678 -62.3361
O 36.5728 131.1416 -112.5365
H 42.9478 77.7972 -134.3699
N 7.7875 -213.3221 -16.2115
F -4.3138 -224.1614 34.1158
C -32.4056 -199.5378 78.0436
O -39.6025 -108.3382 166.5859
O -44.7913 -65.6140 215.2985
C -46.5386 0.5196 175.6027
O -36.4917 102.0682 72.1335
C -6.7655 208.0020 -113.7296
C 45.7611 224.7785 -210.3017
F 116.8287 226.3918 -315.6648
19

F -127.9020 -93.7565 92.5769
F -64.2043 -50.9917 50.1220
H -38.3054 -41.0134 2.5692
C 1.3204 -6.7258 -42.2546
H 43.8839 20.1828 -84.3366
H 74.4665 53.5067 -54.1118
F 75.4064 66.3768 -24.1963
O 46.0166 46.7917 13.9938
C -5.2226 14.5201 64.2721
N -122.2909 -109.4466 109.7509
C -120.5672 -101.1877 77.4687
H -109.4579 -97.1239 52.9518
F -30.2060 -24.3405 -49.8565
N 24.9968 10.3269 -89.6420
O 75.2675 31.6027 -138.6320
N 105.6590 69.8018 -112.8631
N 96.4809 91.1674 -58.2393
C 68.3291 84.7756 45.6699
N 6.3291 35.5337 144.7569
15

N -4.2641 -26.1984 12.3106
C -0.3713 -14.0293 7.0370
C -1.9234 -6.0998 1.0990
O 2.6590 5.3285 1.4791
C 1.7129 13.1433 -2.0425
O 2.6839 22.5181 -5.7889
F -1.8640 23.9967 -8.1370
N -1.3389 18.0079 -2.7845
C -3.4597 3.8082 -3.0387
N -4.4437 -29.5311 10.8980
H -1.6614 -31.5601 11.2608
C -2.6032 -27.4635 8.1232
H 4.9408 4.4052 -3.7555
H 5.6666 18.9441 -13.9319
H 4.2663 24.7302 -12.7288
20

F -102.0615 -66.9456 -33.0868
F -41.8538 -44.6935 -35.7060
O -40.9655 -38.4423 -68.2438
C -18.6835 -23.9979 -60.0190
O 16.6316 -2.9006 -43.4392
H 48.0144 32.9007 16.4414
F 66.1401 48.3635 64.5166
N 67.3353 59.7462 87.1233
C 21.9151 55.2607 116.1998
F -94.2216 -70.7982 -20.0308
C -101.1720 -74.4941 -69.3757
O -84.7279 -93.2103 -104.8211
H -66.6360 -80.2966 -169.1305
N -15.3597 -33.5338 -148.0741
O 29.8592 41.5473 -79.7094
O 48.3820 133.2763 87.3994
O 28.2764 192.9440 207.6702
N 38.2948 147.9009 253.8231
F 49.6760 51.6026 200.0005
H 151.1564 -234.2293 -201.5381
16

O -34.4848 -44.4761 0.9431
F -19.2009 -25.8861 5.1165
C -7.9891 -7.3320 3.2989
N 8.3131 9.6916 1.5242
C 15.3889 23.0385 -1.2567
O 23.4181 33.0492 -9.4476
F 18.1030 28.3130 -8.2655
F 4.2532 21.1637 -2.5582
H -9.6727 -7.9872 -1.5196
N -38.7463 -47.8770 3.2788
F -37.1360 -41.2875 8.2411
C -21.4431 -38.5977 5.5424
H 4.8599 0.1671 0.6984
O 29.7595 23.4484 -1.4310
N 35.2871 45.1316 -0.9166
N 29.2903 29.4406 -3.2486
17

H 60.3010 27.9689 51.1924
C 27.9196 13.0412 29.9264
C 10.5541 14.3690 16.0095
N -0.8680 1.8618 -4.2913
F -26.4410 -9.7733 -28.1997
C -33.4281 -14.9539 -34.6935
C -35.2420 -15.3511 -31.6314
F -22.9577 -13.8978 -24.2508
O 2.9662 -2.1651 6.0328
C 64.8658 33.7774 61.5291
F 56.8817 30.8367 51.7828
N 47.2517 27.1959 46.8688
H 10.4905 14.2547 4.3299
O -20.1070 -5.9337 -24.3972
N -44.0274 -32.6250 -39.5646
C -48.9495 -38.2295 -39.1360
F -49.2099 -30.3761 -41.5072
18

H 159.6627 3.8246 174.8905
C 91.1945 8.6699 106.8489
C 59.4659 26.2485 61.9552
N 18.1387 2.2662 -15.3141
O -49.3666 -17.1389 -82.6164
C -98.6642 -13.2047 -100.6027
C -116.8454 -25.1254 -103.0065
H -95.6843 -16.7268 -65.7182
C -32.6686 11.6851 -26.4207
C 176.1661 16.6028 185.3386
F 176.5714 7.6044 178.1730
N 150.1584 8.9992 158.4201
C 72.5724 17.1143 44.7757
O 31.3708 7.3330 -8.0122
N -78.8606 -17.3042 -72.5646
C -128.5759 -24.2611 -138.4588
F -190.3575 1.6988 -169.3690
O -144.2776 1.7144 -128.3190
19

F -215.8453 -77.8758 -166.0318
C -136.3870 -48.3957 -99.6398
F -98.2291 -35.7549 -52.6523
N -29.0508 -11.3622 11.7193
H 56.1818 19.3276 68.0070
N 120.7260 50.3881 103.8899
F 157.0980 64.2475 88.9605
N 140.8580 46.7000 55.4993
H 74.0273 21.4746 -5.9095
O -230.0006 -86.2852 -181.2675
F -240.7344 -88.3854 -169.3889
H -239.7774 -83.5732 -143.3548
F -123.9039 -56.9176 -33.8281
O -66.1081 -29.2792 40.3281
O 36.9559 6.2752 97.2841
O 146.9789 61.6537 146.0261
N 218.9937 95.0021 134.0658
F 237.8336 89.2990 92.7535
H 190.3834 63.4615 13.5391
13

C -1.0592 4.3323 3.2327
C -0.9965 2.0021 1.8757
C 0.0358 0.6530 1.2971
C 0.9395 -2.4311 -0.3852
C -1.2282 -4.4876 -1.9296
O -0.2586 -4.7451 -3.4488
C 0.0938 -3.2580 -3.9308
C 1.9775 -1.8620 -4.2389
H 2.1604 -1.0065 -2.9677
H -0.3178 4.5268 4.4079
H -0.7472 3.4677 3.1498
H -0.0323 3.8313 1.6975
H -0.5672 -1.0229 1.2403
18

N -4.6686 -26.8252 -18.6261
C -2.7206 -14.3469 -9.7492
C -4.5017 -3.9094 -4.5267
O -1.4409 4.3124 1.9216
C 1.3074 9.8423 7.7182
O 5.1632 13.3676 12.0872
F 6.7868 12.8520 11.7800
C 3.3405 7.9051 4.3778
C 0.8113 -1.5999 -2.3932
H -4.6232 -30.1592 -20.0964
N -6.9987 -24.8369 -16.6332
H -7.7652 -25.3949 -15.8197
H -2.9698 -1.3035 1.1559
H -5.2599 10.1280 5.8990
N -4.8710 20.0480 12.8670
H 4.6966 20.4253 14.3123
N 10.1300 19.5710 12.0495
H 13.5838 9.9242 3.6762
21

F -463.6287 205.9192 234.8762
F -264.6205 106.7085 139.8541
H -160.8662 92.1154 69.6434
N -6.0128 63.7003 25.6092
O 145.7535 9.6731 -31.3408
O 253.9977 -87.5201 -90.5760
F 299.7492 -196.2439 -151.7213
O 202.5676 -190.4288 -179.3130
H 29.3888 -126.7859 -73.9752
F -487.7188 214.3701 255.8399
N -446.6933 220.8379 222.6665
N -330.6913 173.3612 175.8304
H -84.8540 166.4863 36.6092
O 15.4784 199.2885 25.9625
N 102.9506 198.3979 96.6457
C 136.3233 33.7723 121.0775
C 86.1656 -108.5833 15.1635
C 136.5331 -265.3545 -82.9369
H 201.8439 -412.5204 -232.4850
H 481.3813 -298.3441 -493.3283
H 152.9526 1.1503 -84.1013
20

N -18.7595 -11.2485 -202.5617
O -19.4474 -0.4007 -110.5012
N -11.8368 25.4164 -39.0614
N 1.5663 54.6307 19.1025
C 13.9059 62.7124 74.6548
N 16.3551 0.1144 87.6554
N 12.8930 -57.7695 87.8481
N 15.2485 -80.0589 68.9270
H 23.2299 -37.2918 23.5831
F -40.4781 13.6208 -170.2603
N -70.0074 7.0536 -143.3193
H -129.8732 -26.1424 -108.6535
H -74.5759 38.0201 -4.3363
O 59.3011 138.2778 38.1890
O 143.8820 220.1451 78.7971
O 161.2502 281.0872 105.9837
N 154.9288 206.8870 76.5406
F 45.2382 -22.9932 93.6967
F -19.6266 -226.5030 51.1436
H -263.1940 -585.5575 -27.4278
13

N -2.6523 -4.8815 14.6814
C -1.3715 -1.4074 8.7227
C -1.9700 1.6155 3.1245
C -0.4919 1.9116 -3.2425
C 0.9137 1.1892 -12.1830
O 2.7825 4.5173 -18.3713
O 2.4800 5.3629 -14.3429
C 4.6379 3.7217 -8.5786
C -2.4481 -1.7910 -3.8272
H -4.7901 -5.2538 17.1888
H -0.3491 -4.3574 13.3142
H 4.3977 -3.5910 11.8054
H -1.1388 2.9638 -8.2918
17

N 24.5775 -38.7813 -29.8154
O 15.4250 -21.4501 -19.2276
C 5.9856 -7.8504 -12.5334
H 1.4030 5.2395 -2.2059
O -8.6817 14.0003 15.5689
N -16.2394 18.4114 26.8926
O -14.9505 23.2590 25.7144
N -17.9463 19.5727 8.6550
O -6.4030 8.7320 -1.9492
F 27.6563 -43.6633 -32.8027
N 22.5352 -35.4105 -34.0425
H 20.1828 -40.5411 -31.1379
H 12.6118 -4.8638 -7.8772
H -3.8572 7.1227 10.6621
O -18.6779 28.4680 34.4891
H -14.2448 34.8821 23.1805
O -29.3763 32.8728 26.4292
18

C -236.9651 81.3770 -111.2278
F -145.5146 53.5735 -69.9745
C -88.0855 28.7376 -61.4141
N 10.7637 -4.5720 0.1918
C 104.0900 -27.6977 47.4410
N 156.7469 -34.1243 70.8482
O 150.6402 -70.6361 76.8396
F 112.8815 -41.1435 58.4941
H 46.2397 -24.5055 30.4504
F -246.6125 110.4328 -136.1209
F -246.0953 96.1240 -130.1518
N -230.7605 84.4582 -95.2291
C -100.9599 16.0999 -38.2994
C 8.4336 3.8330 25.5551
O 90.3187 -17.1425 50.1449
O 200.4462 -56.9648 99.5754
N 229.0852 -92.0421 100.1649
F 185.3477 -105.8073 82.7122
18

F -93.9977 -58.2209 -97.5456
C -66.3193 -32.4403 -56.1004
C -39.8281 -13.3587 -40.2591
C 11.2747 4.8139 -2.3491
F 52.4718 25.9368 37.8506
O 57.9785 39.1869 54.6473
F 58.0560 27.9676 62.8804
N 41.9882 10.3351 43.2132
H 11.7231 -6.9004 8.4541
O -112.8812 -65.3603 -93.1434
F -120.6289 -63.0383 -93.4021
C -100.0220 -57.9434 -91.4828
N -24.1161 1.0692 -46.0764
O 10.4754 20.4399 8.5461
N 53.5353 55.6921 50.2883
O 86.5615 55.9659 86.6436
C 102.7588 40.9796 85.5996
H 70.9701 14.8752 82.2358
19

F -60.5248 -315.3223 68.2717
C -43.0427 -197.7364 47.4058
F -31.3357 -142.6148 54.9402
N -13.1730 -52.0723 41.8397
H 17.8108 73.7456 8.8049
H 39.5396 186.6785 -36.0225
F 51.1895 235.3109 -75.3435
N 48.8396 207.4656 -86.3341
F 32.1643 99.7386 -70.8253
O -66.0807 -346.6786 72.2105
F -73.6623 -351.3949 89.5422
N -78.9419 -322.2140 90.2773
N -39.2218 -174.6574 95.9246
O -30.6318 -83.9363 95.9491
O 8.8090 41.0879 42.0830
O 43.0405 196.6489 -23.2514
C 68.6495 323.8730 -106.8568
F 67.4021 347.8915 -156.4244
F 59.1698 274.1865 -152.1911
18

H 151.3990 -71.3186 68.4455
C 85.7690 -42.2633 37.8700
C 54.7884 -10.5377 20.4052
N 10.4616 7.8674 -15.0894
F -56.6584 25.5189 -33.7256
C -91.4045 32.6209 -30.8260
C -104.1837 35.6259 -31.3408
F -84.1041 19.4474 -19.8055
C -11.0420 18.8658 -13.1282
H 167.2106 -67.3512 63.2944
F 160.0491 -76.3702 57.5802
H 148.2286 -62.1040 62.9342
C 52.1312 -16.8932 7.9784
O 4.9412 14.5376 -5.8719
H -62.9201 26.6984 -16.7284
N -118.8498 31.1083 -26.6360
F -166.0140 63.6195 -63.7077
C -139.8020 70.9281 -61.6484
21

F -50.3234 -33.9727 -240.7632
F -29.6158 -20.3710 -159.3175
C -18.4146 -18.7962 -140.3281
C 7.3214 -15.6659 -64.3065
H 38.0994 -11.0017 30.0303
F 40.4673 -14.5133 138.2187
N 24.4892 -7.4270 199.3971
F 2.7837 38.7466 213.5213
H -9.5136 92.4540 153.8510
N -45.2955 -46.5075 -258.6676
N -77.6676 -60.2711 -287.8954
H -97.6421 -87.0543 -285.5495
F -57.8400 -42.2198 -227.0555
O 46.1416 32.4929 -177.1854
C 120.6953 93.5244 -31.4533
F 153.0006 140.4929 148.6097
N 112.7711 132.9161 299.3318
N 18.6618 26.9195 370.4999
N -38.9657 -97.0094 312.9544
H -116.5592 -309.2719 -61.4918
F -22.5940 206.5354 67.5997
16

F -8.6312 -1.8008 -75.4513
H -9.7660 1.2994 -43.7270
C -5.5745 0.2797 -12.7517
O 7.7694 -5.5241 19.6869
H 7.8457 -5.8724 48.2029
N 7.9788 1.2978 51.5996
C 2.4639 3.4008 31.8535
N -3.3459 -2.1161 19.2494
H -3.9556 -9.2539 -6.1681
O -7.5144 2.9862 -74.6726
H -3.7424 -2.2837 -75.8948
H -9.4049 0.2591 -49.5615
H 0.7045 -5.7994 -0.9025
N 5.7078 8.1838 42.8922
O 14.7817 10.4668 60.6309
O 4.6832 4.4769 65.0140
22

N -253.3016 -357.8841 -418.1623
O -128.0228 -178.1390 -138.6934
H -73.1611 -13.3238 67.6930
O -0.4814 113.7195 104.6443
C 111.9056 142.7657 72.4758
F 106.5846 26.6481 13.8733
N 116.7010 82.3751 8.5692
C 100.2550 54.3253 103.4858
C -88.2690 -198.8444 265.1637
O -347.1466 -205.7699 -280.6404
F -280.4534 73.2233 -269.9267
H -149.3060 400.2231 -151.7767
O 237.0766 386.5940 142.0734
N 268.4352 147.2750 18.6314
F 408.0950 -117.0990 -28.7365
C -153.9977 -160.9137 344.5275
F -288.9581 -225.7506 47.7019
N -314.9571 -189.5810 95.3010
O 561.8352 609.4188 -394.2498
F 490.1179 -54.2962 -437.7442
H -184.4003 -671.8320 676.7173
C -138.5509 336.8656 159.0723
18

H 159.8283 -46.6864 144.0998
C 83.6505 -28.7146 89.9118
C 46.2418 -7.7778 54.3508
N 4.4939 -6.5083 -14.4225
H -60.6457 4.2529 -70.8322
C -101.1927 19.1117 -84.7880
C -113.2594 17.1627 -83.8131
H -81.3867 19.8045 -56.5927
C 1.4494 37.4187 -29.6499
H 180.0217 -33.5847 144.1922
F 172.1134 -48.5031 134.3541
N 146.9709 -26.7829 138.5827
C 58.7746 -20.0496 44.8821
O 7.3591 -20.7268 0.8939
C -82.2121 13.7487 -58.1341
N -118.1371 42.3781 -89.7108
F -158.6749 48.0833 -147.9504
O -145.3949 37.3735 -115.3736
16

C -39.4701 -2.7186 -7.2577
H -21.5239 0.0219 -6.5544
C -3.1227 1.9823 0.2651
N 11.8389 -0.0205 4.6495
C 18.4431 -1.3862 5.8279
C 19.4981 -1.1455 2.2505
O 19.8466 -2.6753 3.5514
C 17.3725 -2.2031 -4.3898
O 9.0331 -4.3752 -12.9163
O -41.9367 -6.5369 -1.8749
F -42.8532 5.0869 -1.7410
H -43.6885 0.6884 -7.2268
H -7.6899 14.1620 -9.4566
O 33.6792 8.8027 12.8381
H 35.7520 -5.3744 17.6587
H 34.8214 -4.3085 4.3761
15

O -8.4373 -5.7706 -11.8700
C -4.6510 -3.1624 -6.6706
C -1.6371 -0.8909 -1.5988
C 2.9728 2.2003 2.4202
C 5.1903 3.9582 6.7256
N 3.8710 5.2078 9.4598
C 3.2054 4.7387 8.1790
C 2.5535 1.8119 4.2737
C 0.8253 -3.1826 -0.1981
H -8.6875 -5.9555 -10.9055
H -5.9718 -6.5260 -12.8217
H -5.2872 -3.3599 -10.3012
H 3.1372 1.6442 3.9549
H 4.0554 2.7424 9.8529
H 8.8610 6.5444 9.4998
19

F -32.9742 -210.1377 -187.0503
F -14.1278 -124.2196 -113.7507
N 7.6690 -79.0231 -93.5121
C 18.1431 -8.3778 -48.5399
O 12.0639 67.8858 13.4033
F 8.7736 120.1042 92.1700
N 2.1618 134.9445 150.9829
C -5.7624 112.3115 160.4062
N -12.9690 55.7511 108.8897
O -39.7730 -230.3026 -208.3225
N -27.6205 -224.8506 -205.3942
O -41.0364 -204.5988 -206.7850
F 12.8975 -93.3986 -135.7731
C 53.9742 -31.7796 -91.8673
O 57.7284 57.8878 -21.6401
H 18.4408 155.7534 100.2670
N 5.5628 191.1832 188.9930
O -19.2565 183.3217 266.6627
O -3.8954 127.5452 230.8604
15

N -17.0766 48.1014 -14.6672
C -8.7650 18.8864 -7.0687
H -10.4591 -3.0766 -3.3729
O 1.7735 -19.8394 3.8618
C 12.0529 -27.6006 5.3256
O 15.5927 -26.1585 10.4900
F 9.7424 -18.4894 0.7000
C 5.0363 -15.7608 6.4998
H 11.8680 0.4535 -6.9118
N -19.6192 48.9959 -27.6166
H -18.1893 50.5984 -11.5105
N -6.3705 31.5918 6.9397
H 6.8386 -12.5097 18.8465
N 15.2481 -42.2374 14.8731
O 2.3272 -32.9550 3.6111
23

F 65.4324 144.6037 293.6047
F 54.4819 102.0664 242.4411
C 73.3459 126.0841 215.3197
N 25.0900 -36.8846 -194.5681
F 51.2663 -238.1416 -212.1867
O -86.6562 -201.5289 -271.0149
N -46.1741 -200.1261 -126.8901
C -115.8477 -80.5592 -159.2578
C -223.7591 166.5176 251.8691
O 191.5883 197.8675 186.6656
N -26.2970 -78.2675 152.7957
N 38.4366 94.2258 1.7079
C 397.7227 24.9084 233.9676
C 158.8475 -338.9584 399.0396
F 160.8022 -218.8672 -63.1219
C 54.8904 479.2197 159.4687
C -152.8365 58.5668 -232.4750
O -104.4996 -502.8220 -497.5547
N 227.4328 -102.0461 -121.2908
C 180.4925 697.4975 -243.5810
O -232.9386 -192.3502 243.3403
H -153.8508 -259.1719 -367.2848
H -536.9700 358.1663 109.0057
19

O -124.8061 -132.1788 14.6030
C -89.0195 -81.2613 11.9880
C -94.9777 -60.9488 18.9959
F -59.2985 -29.8059 6.9423
F -10.5942 20.0311 -13.3572
C 66.3713 76.4941 -18.7348
O 134.0101 114.0406 -29.9709
F 154.7567 97.6546 -20.0682
C 116.5057 52.2741 -11.2419
F -133.1646 -148.6283 25.2180
F -154.8526 -145.6293 31.2426
N -174.5869 -139.9456 34.4277
H -149.6328 -85.0978 30.8578
N -138.5215 -61.8271 9.2009
N -73.5244 -31.4323 4.5423
N 36.9800 47.9217 -24.5419
N 176.5220 139.3679 -46.0435
N 264.0771 196.0955 -20.1403
H 253.7559 172.8755 -3.9198
16

F 42.9434 61.9516 3.4786
F 27.2338 35.7349 0.8110
C 18.9232 11.3789 1.6422
C -1.3945 -9.2656 -2.9222
O -22.2892 -38.8261 -0.4123
N -27.1148 -47.1984 -14.8259
F -34.3186 -28.9362 -15.5947
C -22.5053 -14.7959 5.5530
C -10.4520 13.6602 11.3985
N 38.3186 63.3049 14.4968
N 44.9880 45.4303 0.9146
H 44.6832 43.3797 12.4117
H -7.4643 1.9940 -0.7123
O -15.4741 -46.9064 -11.1363
H -42.8926 -45.3431 -3.6262
N -33.1848 -45.5627 -1.4766
18

F 77.4788 68.3802 -1.4918
N 45.0563 42.8196 0.6996
H 25.1674 25.7579 -1.6259
F -0.8685 3.9349 -2.3270
F -30.0323 -22.4897 -1.2030
C -48.4890 -44.1263 1.0327
C -55.9456 -49.9854 -1.2035
C -38.4234 -37.0100 0.1739
N -7.6264 -4.6952 8.2081
C 87.4829 77.0099 -2.7060
F 84.0110 74.5976 -5.1635
N 73.5980 65.0386 0.3217
N 27.2256 33.7492 -4.0581
N -4.5688 -1.1605 -14.7651
N -39.5113 -38.9281 -5.6296
C -62.2875 -64.8812 6.7105
N -79.2283 -71.8480 7.9802
H -53.0389 -56.1636 15.0468
17

C 63.2487 43.7301 -127.9059
F 51.3637 28.1433 -76.2155
H 13.7416 12.5367 -24.9716
C -11.7083 -1.1157 3.7934
H -39.9238 -26.5737 49.2936
N -60.7247 -34.3861 85.3228
F -42.1614 -35.6291 89.2705
C -28.6637 -20.1136 53.1674
N 2.2842 9.6362 5.6818
N 73.8317 56.7939 -148.9609
F 80.3733 71.1921 -146.6494
N 70.0243 46.1399 -118.0982
F 17.9568 14.7291 -29.4915
N -16.8306 -12.2286 30.1013
O -43.5633 -59.2669 99.7002
O -71.5735 -54.8071 146.2104
O -57.6749 -38.7806 109.7518
21

F 48.2080 35.1887 234.2153
C 53.9989 9.8299 109.5361
F 10.0524 2.0608 -23.0598
C -28.8465 -9.1418 -144.0672
F -71.0463 16.6727 -226.7223
N -66.5395 0.7468 -182.3850
F -45.9719 0.2104 -71.3170
N 1.2635 -6.2083 74.3750
C -19.2845 -48.6532 272.6518
O 68.8735 31.1270 268.3883
C 115.8046 57.2705 172.3005
O 136.7322 92.4441 68.2856
O 54.9487 35.3447 -204.3440
O -15.4368 -75.5213 -285.4453
N -145.9526 -115.2063 -261.7996
N -207.5961 -94.2704 -101.9366
O -232.4245 26.4798 73.3131
N -93.3098 113.8688 68.4091
F 66.6462 168.3447 136.3449
H 399.7273 39.9509 -323.9329
N -29.8469 -280.5385 347.1898
16

N -63.2299 18.7856 -65.4277
C -42.0432 12.8820 -39.6705
H -7.2623 9.1239 -8.0679
N 11.0983 -7.2550 15.6249
C 34.5164 -6.0433 28.3798
N 43.5307 -2.1896 35.6677
O 34.4837 -5.7784 27.4461
C 12.2744 -12.6045 19.8925
C -7.7909 -11.2397 -2.7316
O -67.0982 17.6087 -63.7255
F -53.9083 10.6153 -56.3598
N -63.6079 7.1532 -54.1793
H 6.6393 -4.3248 0.2105
N 51.5221 -7.6553 53.4475
O 57.0136 -15.5109 60.9578
O 53.8623 -3.5673 48.5356
23

H -145.7232 -316.4468 85.3181
F 4.3308 -144.2844 -16.2813
F 85.9976 -35.6575 -27.3094
O 42.3147 17.7013 -8.3839
F 122.9770 27.3388 -34.8917
F 43.3466 115.6771 1.3093
O 63.2640 8.5509 -7.5623
F -180.9799 160.8425 -113.4710
F -263.9486 201.4468 -250.8327
C -163.5788 -421.8474 112.6096
N 108.6013 -261.1649 141.7832
H 243.6499 -67.4524 -247.7281
F 249.7476 87.9931 71.6862
O 2.8319 226.6137 448.2742
N -58.5955 -270.5368 249.6354
C 119.2940 91.3846 125.6942
F 188.0681 239.1571 11.5631
N 2.7258 -233.7238 -531.6536
C 635.9791 -87.3485 -107.9882
C 268.0578 652.2078 531.0212
F 32.2537 320.2422 13.6199
N -734.1471 -247.1746 24.6460
N -666.4668 -63.5188 -471.0582
15

N -12.3549 25.0438 9.3812
C -4.9650 11.3897 4.8510
C -0.0996 1.1848 -0.5702
C 4.4181 -7.6433 -0.1770
O 6.2617 -17.9027 -0.0223
N 7.8325 -17.6193 -6.7842
F 8.3160 -9.6490 -5.5296
C -2.2190 -7.3318 -5.6738
N -2.4028 2.5506 -7.1785
H -19.9720 28.3117 9.6687
H -10.1287 31.0126 9.4376
H -7.9110 17.7565 9.1068
H 10.1913 -3.5231 4.8688
H 14.9641 -28.9875 -10.2233
O 8.0693 -24.5930 -11.1552
13

C 3.8548 -6.1193 -3.7780
C 1.9109 -3.2147 -2.0830
N 2.3833 -2.1414 -0.2099
N 1.7255 1.9554 2.2888
C -1.6321 4.9022 3.3006
N -2.7248 5.5983 4.7411
O -3.7214 4.5785 3.3716
C -2.6479 6.4906 3.0808
N -2.0356 4.8008 1.5725
H 4.7619 -6.3976 -6.6661
H 2.7528 -5.5291 -2.5258
H 0.3334 -3.8087 -3.6520
H -4.9609 -1.1149 0.5594
21

C -24.0466 70.5720 43.8425
O 1.1168 45.8341 18.9821
C 6.7320 25.9608 -23.4147
F -7.5188 6.9927 -42.7159
O -68.9623 -70.1585 -22.8960
O -109.8387 -109.5419 23.9244
F -76.0353 -99.2474 49.2682
F 46.0056 0.0365 -1.3245
C 218.2624 131.7558 -37.2385
H -38.9628 74.9479 71.3422
F -20.6093 47.4988 31.8737
H 16.4506 12.9292 -15.3924
H 74.7705 57.8985 -79.7147
O 85.2518 57.1178 -110.9004
N 6.3714 14.6928 -166.3165
H -137.1465 -23.0685 -114.1067
F -338.3111 -13.3072 44.4497
H -526.1814 -133.6434 315.4535
N -340.0966 -191.0728 340.5295
C 279.1721 -275.3533 66.6876
F 953.5763 369.1562 -392.3331
16

O 61.7931 13.6581 18.7465
C 35.0153 5.8880 5.9808
N 20.4232 4.9204 9.2338
N -13.0456 -2.0318 -5.1219
F -41.6149 -9.0533 -20.5153
N -39.9430 -7.3455 -27.7169
C -31.5000 -6.2211 -20.2484
F -20.7133 2.5718 -11.8884
C 6.9993 3.3519 6.4686
F 65.9414 6.1558 25.4761
F 76.1606 8.6040 32.2589
N 46.1447 14.4158 24.2639
H 2.0988 8.5170 -7.2812
H -34.0967 -1.8250 -4.6347
H -65.3940 -13.8254 -6.3531
N -68.2688 -27.7806 -18.6689
17

F -77.7571 -101.6393 47.1870
F -41.3352 -64.0089 33.9022
H -23.7336 -35.1572 31.0113
C 6.1187 8.5772 -12.7785
F 29.1932 37.8610 -36.1435
O 47.1903 76.0644 -29.0920
F 45.0896 69.7678 -32.5208
C 28.4612 40.9309 -16.7405
N 11.8752 14.8598 5.7826
O -74.1931 -103.1037 50.5444
N -78.4963 -114.0922 48.6856
N -72.4786 -107.3250 51.7129
H -5.5971 -15.0685 11.0201
N 22.6621 9.1693 -3.4320
O 53.5633 67.8698 -36.8986
C 69.9088 109.9965 -47.0365
F 59.5286 105.2983 -65.2038
23

F 56.1167 559.6530 12.4681
F 7.5278 277.3274 95.3140
H -113.3044 169.6808 76.3525
C -149.3506 55.2614 73.2910
C -41.9126 -168.2304 26.0134
C -66.4993 -260.1994 58.3255
F -9.3768 -271.2775 8.6519
C 162.3451 -310.8179 -25.6546
H 273.2997 -303.0075 -116.5411
N 124.8086 661.4044 -24.9518
H -127.5702 506.1986 -109.3528
N -193.3735 435.7987 77.7547
F -184.2725 12.2570 115.5410
O -223.4741 -130.9160 -108.4213
O -54.8236 -111.7187 -185.4041
C -262.8824 48.5820 -7.7950
N -156.3469 210.6833 -114.0466
O 334.3343 407.8202 183.7572
F 708.5309 63.0776 -121.8451
C 362.4549 -832.1390 85.7298
F -159.1404 -565.4882 525.5255
H -545.7545 -83.0662 11.9141
H 258.6637 -370.8838 -536.6263
17

N 110.4598 -151.6800 56.0521
C 64.0977 -89.2558 23.3228
H 35.4517 -31.5598 -5.3736
H 3.0108 20.9411 -34.8571
O -34.7280 60.8112 -53.4337
H -58.7781 62.6925 -21.0890
O -72.2759 74.1499 1.6643
F -87.6774 77.1614 -21.3263
C -78.7795 41.5382 -15.2560
F 126.8683 -195.1986 44.9263
C 100.4895 -153.8730 73.1854
H 82.1965 -165.8871 49.4606
C 44.4679 -20.9787 23.8832
H 7.0521 26.4857 1.4127
O -66.8649 134.3629 8.8512
N -43.2577 164.1158 -82.0165
O -131.7327 146.1745 -49.4066
19

F 212.0909 -105.8227 153.3746
O 131.0059 -64.6522 90.1512
C 91.1656 -44.1632 61.1393
O 25.8378 -12.8127 14.9407
H -53.1142 20.9086 -43.5648
C -117.5535 55.6633 -85.5962
O -150.1546 70.2749 -104.8551
F -135.0825 72.7795 -87.1450
N -69.4792 48.7481 -41.7058
H 229.3247 -116.9828 166.6030
F 237.9058 -112.8000 165.9075
F 222.0494 -108.7806 150.4213
F 119.1683 -49.5951 80.9372
O 50.2509 -21.1770 30.6437
F -38.1494 12.7846 -32.1046
O -131.1522 56.9735 -100.3033
O -213.7021 103.2851 -149.7762
H -232.8161 106.4494 -158.9059
H -177.5955 88.9193 -110.1618
16

C -43.3751 -4.8854 28.6582
O -21.5310 -3.6353 19.4098
C -10.4095 -3.1669 7.5381
O 13.7153 -2.0992 -7.0972
C 19.7927 -2.7489 -11.2471
N 27.5473 6.5275 -19.7501
N 27.5554 3.6471 -15.9404
C 15.0312 4.3195 -8.1527
H -3.7311 1.4741 -2.9136
H -49.5118 -2.7856 29.8792
C -36.7829 -4.3851 21.2048
F -44.4648 -12.6901 21.0913
H -5.2037 7.5903 -4.7789
O 22.9536 12.7345 -19.7600
C 47.8160 3.0105 -16.8150
C 40.5986 -2.9072 -21.3264
19

H -119.2469 8.1073 85.4781
N -75.6270 8.2222 61.7051
C -49.3799 15.8310 64.3135
N -3.4137 15.2166 45.1620
N 39.4985 7.6866 -2.0931
O 67.1669 2.3359 -54.7853
F 77.0813 -14.2366 -98.1830
F 64.8166 -25.6384 -101.8627
C 28.0798 -21.5709 -68.2544
O -131.2056 12.7570 97.1867
N -129.3766 18.0083 120.6750
H -119.0882 19.9203 128.9474
N -45.6645 26.8057 125.4223
O -11.7428 28.7718 109.3263
O 30.1729 16.0017 37.1624
O 75.0150 -7.0231 -41.9633
C 109.1041 -25.1075 -137.2331
N 114.3170 -51.4094 -192.8284
F 79.4933 -34.6785 -178.1753
15

O 1.6113 -21.4279 -58.2596
C -1.1126 -14.2655 -31.7956
C -4.9198 -7.4029 -1.4048
C -1.4232 4.0842 20.4900
C 1.7351 7.7488 39.6604
C 2.8137 11.0209 32.5345
C -0.1810 8.3056 21.9419
C 2.5452 3.7240 2.2096
C 2.9557 -6.3884 -3.8907
H -8.9686 -7.3062 -43.1607
C -5.9353 -9.1883 -42.5301
H -10.8487 -2.8658 -22.3837
H 3.8997 -0.6619 11.7051
N 7.5495 17.3751 32.8018
N 10.2791 17.2483 42.0818
20

F -15.4697 -155.8975 27.2036
F 5.0085 -100.7374 4.4853
O 0.3530 -81.2687 -35.1199
C 3.2927 -42.5465 -48.3684
H -4.8202 18.2842 -50.1594
H -2.0983 86.2934 -18.3608
F 6.8169 124.7710 27.8930
F -1.5936 126.1591 55.0021
C -21.3482 62.1505 74.3213
N -8.7272 -171.5305 43.0539
C 23.4234 -170.4706 -1.3368
O 43.1757 -150.7912 -21.9581
H 43.9683 -86.8784 -105.4356
N -0.7689 -79.9873 -115.6716
O -43.0979 -44.2093 -99.4958
N -89.4786 23.7149 -22.4142
O -118.2160 117.9118 64.0239
N -51.3051 193.4605 127.3940
N 10.3008 195.5648 137.8597
H 220.5847 136.0074 -42.9160
16

F -27.2155 -56.1755 43.4862
N -11.4119 -34.2139 27.8510
C -10.8429 -13.4008 3.6373
C 3.3904 10.7456 -9.3756
C 9.1253 18.8308 -21.6238
H 18.3565 37.4347 -32.6082
F 11.9994 42.8875 -29.5780
F -2.1811 37.7383 -8.6890
H -20.8593 -8.0550 1.5420
H -27.8157 -58.7027 41.5228
F -24.9991 -49.8159 39.7269
C -4.8493 -52.6171 29.2601
F 4.1149 -6.3961 -7.1466
H 11.6908 31.1880 -23.4572
O 35.8538 63.9529 -25.6329
N 35.6437 36.5991 -28.9149
21

C -132.2922 16.8570 132.8134
F -39.7282 5.8276 85.3791
O 6.2398 19.0837 -25.4047
C 100.8828 53.4546 -85.6721
O 132.5855 17.7921 -105.0238
C 149.1195 10.3337 -51.0296
F 60.5513 -43.3567 -16.2322
C -175.3837 -12.9147 -1.1420
H -364.9936 -39.0024 -0.2658
H -114.3244 19.0549 166.4635
F 18.6486 -12.3354 126.3616
N 127.9649 -30.4901 115.5590
F 224.4728 72.8458 -81.6863
O 196.1179 14.7940 -186.8310
O 127.1377 91.1475 -206.5895
C -12.6056 76.4305 -139.4663
O -252.2852 75.3727 -87.9857
C -181.4680 33.6865 147.2845
F -35.0976 -90.4063 226.5148
H 588.0918 -113.1370 134.2040
H -423.6342 -165.0381 -147.2507
23

N -495.5594 155.8672 -57.6193
O -337.4172 82.4298 -5.3744
C -200.3822 99.1078 136.4139
F -41.2569 -4.8804 100.4995
F 128.7571 -115.2421 -47.7064
O 267.9000 -229.9282 -159.3151
N 355.3987 -78.6852 -54.2671
F 211.3901 30.4152 23.1152
H -176.4109 -57.8477 212.8961
O -549.5744 227.1863 -212.4212
F -439.1806 247.0075 -91.5847
N -320.2066 476.4445 -68.7625
O -62.3792 40.2630 325.4115
F 232.0137 -224.5929 225.9843
F 549.4410 -112.4273 33.6930
C 429.9715 63.9028 -144.0188
O 293.5731 -38.4623 -532.4656
F -237.9892 -168.0349 -321.2234
H 108.0680 -163.5492 89.7883
C -119.0071 -481.0873 29.5621
F 237.4009 -117.4740 210.6200
H 698.6168 869.0355 292.4764
O -533.1673 -499.4481 14.2982
25

N -367.5991 -249.0365 41.4119
F -256.5898 -150.7321 5.0500
C -109.5464 -115.9146 -41.9059
O -187.9580 69.2000 -59.6586
C 18.1724 59.0140 76.4614
O 1.4151 -20.7215 -75.7678
C 231.6906 43.4610 93.2528
C 113.3505 -161.6223 -202.0516
H -176.0489 67.9719 302.4326
O -447.2376 -269.2874 130.3973
F 20.1641 -316.8332 -97.1668
H 267.6379 -11.8330 48.6804
O -22.9806 576.7758 -23.2307
H 75.6775 -88.9321 9.7432
O -51.8146 245.3568 445.1730
F 28.3377 -336.1617 -219.0529
F -280.8928 -91.5467 -329.8732
N 43.4418 513.7946 -59.0443
O 37.3021 487.0434 18.8504
F 1174.3455 -357.3059 -363.0760
F -325.8883 -270.1075 -254.3214
O -33.6685 309.9682 249.9287
C -559.5718 -357.7544 146.7905
O -50.0856 0.2661 -308.1119
H 858.3468 424.9372 465.0890
23

F -221.2970 137.0157 406.9202
C -109.4889 82.9391 219.8689
O -71.5753 -2.7369 178.8466
N 1.4603 -210.5331 -17.2245
C -8.8839 -265.9232 -169.3671
O 3.9722 -334.8498 -231.7447
C 48.3482 -180.9623 -173.2142
N 41.1022 158.9426 -131.1687
C -27.3915 599.6390 -89.0983
F -204.7165 162.3217 406.2529
N -123.4765 -53.2019 223.3157
O 17.9853 263.9519 93.9678
H 286.9973 53.0890 83.6322
C 269.7897 -497.0434 194.6775
F 114.6249 -446.7149 -68.5219
H -19.6058 -141.7011 -35.9224
O -214.2058 -86.2912 -309.6754
H -275.3653 -30.0015 -198.4216
O 395.4413 150.6793 37.5470
H 211.3766 -117.6604 -480.1914
O -389.0357 -264.9265 -490.8069
F -67.7241 208.1443 512.2742
F 341.6684 815.8235 38.0543
12

C -1.6790 -0.2366 3.4973
C -1.6348 -0.1107 1.4148
C -1.4599 -0.1135 1.4432
C -1.4768 1.1786 0.1977
O 0.7308 1.8187 -0.7938
C 1.3896 0.9408 -3.5654
C 3.2023 0.2144 -4.3476
C 2.4892 0.4371 -4.0291
N 2.6105 1.8855 -1.7185
H -1.2799 -2.7171 2.6218
H -2.2258 -2.0817 2.9573
H -0.6662 -1.2153 2.3221
19

O -17.8017 85.3479 -44.1996
C -27.7439 47.1635 -35.3943
C -35.2849 25.6577 -34.9543
F -31.1457 -13.6064 -35.6798
F -25.4192 -32.5525 -8.7052
C 12.5940 -37.4050 15.5805
C 48.7613 -50.0523 39.2370
F 59.3990 -39.1777 46.6315
H 78.8742 -9.6115 56.5561
F -21.5495 74.2218 -50.7026
F -48.9804 75.2615 -44.3306
N -85.7451 73.8793 -44.0637
C -81.9942 27.9848 -56.8722
H -83.4167 8.9110 -72.9661
C -61.5391 -34.7258 -38.2814
N -12.9932 -40.4197 23.8772
F 40.0384 -53.0402 79.4629
H 138.7460 -58.2936 123.9205
H 155.2009 -49.5428 80.8843
19

F -91.2623 -118.7229 128.3551
F -55.0135 -72.4377 80.6914
N -40.1132 -52.5192 58.2406
H -10.4100 -14.0973 12.8067
H 25.1956 32.0194 -38.4028
F 53.7063 73.1860 -72.2178
H 64.8467 87.4302 -89.0023
O 58.6132 70.6565 -81.0544
H 28.6526 27.6506 -38.9393
N -97.6332 -127.1753 139.2407
N -97.4249 -130.6004 142.6389
H -96.1767 -121.1576 132.1278
F -47.8769 -61.9582 74.6924
N -28.3755 -21.2206 21.2379
O 19.7155 33.4671 -42.5354
H 62.8911 89.0864 -97.7824
N 95.1892 116.5125 -137.3873
C 92.8081 111.5294 -129.5087
O 62.6679 78.3510 -63.2010
18

C -129.2165 -42.3236 50.0663
F -77.8227 -23.7829 32.2983
H -55.9330 -16.1422 21.0812
N -7.1088 3.2092 -2.6577
O 49.2249 14.5362 -25.2574
O 87.4852 28.5969 -33.6277
C 91.0987 32.8058 -29.2138
O 68.0848 14.8411 -23.3454
H 18.3667 -6.2512 5.2601
H -134.2730 -44.4371 56.5650
F -143.1158 -47.2773 51.5868
N -129.0802 -42.3378 48.8713
H -53.6821 -12.7516 6.9293
N -6.0722 10.4966 -1.7714
N 61.5191 32.5578 -38.2351
O 112.2192 39.1381 -37.9832
N 132.5676 36.5411 -55.7355
H 115.7380 22.5809 -24.8310
20

F -89.5982 185.2253 69.2401
F -41.6966 107.3086 33.6219
H -30.6638 72.2743 10.9036
F -32.9958 27.1067 -1.3590
F -22.7656 -17.7727 -19.8811
O 24.7077 -96.2152 -26.4122
F 95.5579 -163.2171 -54.1941
F 85.7527 -146.8817 -32.5713
O 12.5649 -48.6783 11.6487
O -87.6423 203.2138 67.7774
O -44.5878 204.8594 59.9215
F -7.0672 169.4842 18.2517
C -10.0919 90.1534 -39.0613
N -58.4591 90.4208 -11.1950
O -133.1487 62.1400 93.5184
C -234.3921 15.3422 202.7490
O -267.4023 -53.0487 220.7321
C -58.4825 -200.5280 38.4648
F 235.2725 -275.2508 -166.8755
C 665.1382 -225.9363 -475.2798
19

C -192.5301 187.0838 69.9833
F -114.2051 121.8839 55.5645
H -59.9554 97.6972 41.3554
H 8.6671 54.7746 -1.7499
O 75.2272 -17.8154 -29.3120
O 110.5689 -95.2868 -55.5970
F 114.2398 -152.9161 -63.2567
O 78.6292 -157.7078 -43.3251
O 4.8171 -101.8867 -5.0254
N -209.9582 199.1779 78.1616
C -199.4049 201.7601 91.2344
F -183.4390 193.4386 84.1590
H -57.5130 143.0291 49.6483
O 24.4687 106.1604 21.1797
N 83.9552 18.7119 -30.6460
O 141.3513 -93.5914 -70.0340
O 156.8076 -207.7322 -97.0490
C 146.2208 -265.8428 -66.0663
H 72.0528 -230.9382 -29.2248
16

C -52.6965 -11.4547 32.3632
N -25.1489 -6.9541 17.8448
C -7.9332 -2.8409 1.3593
O 12.3303 5.0425 -15.7681
C 16.9702 3.4216 -16.0836
O 24.9241 11.9538 -14.9545
N 31.2252 8.5363 -8.5425
C 28.4790 -2.2816 -9.4886
O 15.7932 -8.9570 -12.6633
H -57.7794 -9.9675 30.7947
C -44.3197 -17.2303 31.8226
F -39.9632 -10.5293 43.1584
H 4.1905 3.8755 -4.6383
O 16.6588 15.5921 -24.2141
C 39.2073 9.3347 -33.0591
N 38.0622 12.4590 -17.9308
21

C 59.1412 -69.0223 246.0971
F 41.7248 -48.9229 128.4875
F 45.9300 -33.0687 18.0910
C 63.9687 -14.7656 -86.9692
H 62.5300 14.7249 -183.7131
N 22.8242 46.0266 -216.2354
N -52.4280 50.7203 -180.3327
N -144.0382 48.9968 14.8090
C -210.1965 4.8977 321.5166
F 78.2125 -69.8829 273.7979
C 84.8742 -25.3813 178.6623
H 90.2085 9.2346 31.0128
H 107.8215 -4.8423 -180.7012
O 150.0161 -25.3686 -175.1655
N 134.6131 -9.0472 13.0467
O 75.1099 -100.0764 179.0061
N -25.3439 -128.5843 187.7827
C -56.5513 -48.5916 -138.0867
N -129.4575 23.4019 -283.9231
C -87.8023 317.9834 -875.8663
H -311.1570 61.5680 728.6835
19

C -21.2746 9.5166 -94.2966
F -11.8624 6.6052 -60.9444
C -7.5498 4.6415 -51.5583
C 3.1344 2.0533 -23.3723
O 8.7091 -0.4853 15.0283
C 10.6957 -4.1747 55.6410
O 10.2180 -8.9752 79.6760
C 5.3915 -9.0600 75.1050
C 1.2978 -8.1912 42.8683
H -20.3381 11.0561 -100.7521
H -22.0143 9.7543 -109.6184
C -19.4881 10.1677 -109.2672
H -7.1752 8.9742 -79.6641
O 4.7130 7.8959 -52.8279
H 12.4860 4.2344 -5.6187
F 20.3840 -3.2445 56.5922
N 17.3589 -10.5241 112.8797
N 11.6286 -13.4682 138.2937
H 3.6855 -16.7758 111.8359
16

N 14.7256 -18.8734 40.7824
C 7.6114 -10.5801 18.3705
C 1.7454 -5.0530 6.0112
N -1.8536 0.2771 -7.1887
C -8.1895 4.2573 -22.2033
H -8.6857 8.1609 -26.6802
O -14.7533 12.9197 -22.6614
C -8.6962 8.7462 -12.2695
C -5.9495 3.6066 2.5193
O 12.4536 -19.1155 44.3237
H 16.5142 -16.3229 39.6688
H 8.0288 -13.0945 28.9762
F -0.7406 0.6155 -5.7736
H -6.7714 10.9926 -19.7257
H -5.9955 18.9546 -33.3708
N 0.5563 14.5087 -30.7790
19

F -88.2375 67.8706 88.2492
N -35.6734 46.1510 42.6779
F -29.2909 33.2723 -9.7578
C 4.0450 16.9119 -48.3254
H 37.1987 -22.9855 -89.8057
H 52.7561 -38.1489 -56.5989
F 48.0595 -54.1945 -11.7810
F 26.2830 -57.0427 29.2786
C -11.9754 -34.8663 82.4264
H -83.6860 81.7334 104.5256
C -81.6221 87.0422 65.8273
O -61.6420 76.5479 41.0704
H -13.6871 53.6387 -69.9786
N 23.0417 23.8665 -119.4439
O 52.8430 -13.2970 -166.2638
N 77.8815 -43.9175 -109.9173
O 61.1364 -59.8031 -36.1052
F 42.7564 -87.3384 88.1478
N -20.1868 -75.4407 175.7743
19

F -31.0187 -360.7028 81.6381
H -8.3726 -222.1057 40.0975
N -11.6117 -165.1822 8.7456
O 6.6363 -58.5577 -24.6111
H 15.7209 69.3407 -70.6766
N 22.5762 197.6501 -54.6342
N 15.6408 265.6867 -24.7675
N -4.1079 241.4277 7.8909
H -5.6675 128.9288 43.8444
H -28.1792 -388.8736 96.7533
F -26.2218 -390.5804 76.3648
O -15.8033 -372.4164 50.0939
H -1.3277 -210.8650 -32.8829
N 15.2682 -102.1022 -70.4783
O 56.8256 42.4200 -119.1647
H 38.6280 221.4850 -98.0037
O 22.2836 373.8820 -46.4647
O -16.8010 415.7987 28.2553
N -44.4684 314.7661 107.9998
20

N 121.5880 -223.7445 -257.8506
F 72.4703 -141.2287 -175.0354
F 53.1409 -100.7249 -153.2011
C 20.4726 -45.5323 -63.4209
C -38.9996 39.4627 58.4006
O -76.1831 126.1170 171.2342
N -87.8941 174.5013 219.0526
H -79.9853 160.4791 198.8313
C -36.3896 71.1798 126.9175
C 131.2714 -241.4582 -269.4748
F 140.1721 -216.1951 -330.3591
F 134.0493 -182.3207 -375.3394
H 88.6988 -111.5657 -307.4447
O 33.7516 -109.8313 -134.4996
O -44.6015 -42.3808 122.3177
H -124.7155 13.9859 395.7429
N -163.8119 82.9757 558.7149
C -148.6817 201.0117 463.7189
N -71.3544 247.0745 187.3177
C 77.0019 298.1945 -435.6225
23

F 47.4337 -185.2794 377.7740
F 103.3306 -137.2005 403.9298
N 137.8394 207.1921 330.7941
O 6.2454 103.7369 -88.4768
H 98.4902 -236.1590 -295.4435
N -59.2146 -468.2614 -434.9199
C -24.5313 -137.3301 -274.6475
C -264.8245 263.9995 62.1886
H -368.8866 326.1785 628.8659
N 195.6972 -103.4176 99.6163
H -184.3915 45.0274 -128.1487
H 31.2535 656.8673 -322.4561
F -138.3793 357.6635 106.2506
F -395.5925 -402.5422 110.6949
O 718.2369 -847.2420 -711.9261
N 432.9808 -33.9536 215.1518
N 456.5394 39.8556 -1.4415
O -534.8752 -271.8857 289.0800
N 366.7488 190.1340 56.9042
C -6.0506 -281.4306 -484.0576
O -593.8062 64.1726 -331.2721
H 74.5922 768.8846 -1.1092
H -98.8360 80.9900 392.6488
18

H -16.7925 -151.0005 -61.0854
O -9.0637 -84.6160 -42.2457
N -14.4235 -61.0722 -29.0012
H 7.0288 -6.8998 5.5498
F 14.0205 55.5430 31.1841
O 16.0941 89.8289 48.3539
F 15.2024 109.5266 40.3401
N 6.6716 79.4106 21.3066
N 7.0870 26.2227 -3.7007
C -27.2187 -158.5211 -76.6406
N -34.9665 -162.9303 -73.2786
H -29.4291 -149.7823 -57.8046
N -8.4702 -60.9316 -22.1664
H -0.3550 -7.6363 23.4005
N 7.1119 60.7578 43.8492
O 18.8917 123.0992 50.6266
C 21.7582 161.6973 57.0170
F 26.8531 137.3041 44.2953
16

H 37.0319 52.6141 -3.5876
F 24.1233 29.8453 -0.2139
H 8.4967 9.9538 0.6891
F -7.7639 -4.9292 -4.8856
O -26.6172 -23.3776 0.0225
N -22.7671 -32.0830 -0.8614
F -21.7547 -27.0733 -3.6695
N -8.6313 -18.4926 1.9745
N -1.6259 0.9878 6.8064
N 40.1511 51.4036 0.5891
N 34.5351 50.0849 3.3936
N 36.4667 31.9402 7.2765
H -5.4397 10.3786 9.0538
O -15.7301 -32.9561 -5.6606
H -39.1673 -48.9450 -2.0791
N -31.3076 -49.3514 -8.8479
20

C 124.1494 107.1240 -19.1152
H 74.1149 61.5272 -11.0107
H 29.6654 43.9512 11.2255
H -14.4090 23.0527 27.0570
H -70.8538 -26.9953 36.2772
N -89.7905 -71.8286 28.5139
C -58.9954 -84.1548 -10.2763
N -27.3247 -78.3927 -42.3580
H 16.4281 -9.8005 -37.5990
N 149.3941 117.2212 -20.2046
F 135.1885 120.2722 -24.5226
C 111.6701 96.9634 -29.6052
O 22.5893 50.2428 12.9739
N -33.2346 35.2780 60.6262
O -95.7311 1.0410 134.8174
O -159.4421 -9.9417 166.8604
O -169.2421 -40.5855 100.9853
C -93.8859 -81.5222 4.3004
H 37.0487 -91.8778 -168.2540
C 112.6605 -161.5747 -220.6917
18

C -10.0194 82.0054 -68.9072
F -6.7530 51.5755 -40.9234
H -0.3996 33.2672 -25.1064
N 3.1599 3.7429 1.5656
C 6.1660 -27.2209 27.3695
N 9.3793 -52.0518 39.6490
C 7.0821 -61.8502 42.8906
C 0.1248 -45.8815 28.8385
C -2.0030 -13.9664 3.9243
O -9.4503 95.8281 -69.3774
N -13.8988 92.0814 -68.6453
N -10.9286 87.9580 -56.3586
O -2.9651 35.4882 -15.1764
N 9.1021 3.6498 3.2455
C 9.6481 -33.6284 35.2890
C 8.0456 -71.9069 53.8065
N 2.3456 -95.8013 54.6235
C 1.3644 -83.2890 53.2929
21

F 46.4848 -61.2128 -49.2332
F 16.2649 -48.6998 -26.7992
H -10.7604 -53.9742 -19.2068
N -20.7558 -55.6569 -20.3715
H -29.2980 -32.7690 -16.6377
N -14.8883 2.1596 -5.1245
C 10.1108 60.0912 5.0880
F 11.4806 116.6608 51.0505
H -4.1485 139.9442 85.3319
F 65.5047 -78.5570 -50.8785
F 40.3754 -83.8841 -36.2974
N -5.1953 -98.5676 -22.0336
F -54.9672 -81.5359 -23.1620
C -64.0026 -93.5359 -35.3888
C -64.4403 -85.5864 -5.5649
N -44.9268 -35.2007 -14.7206
H 21.2926 46.5791 -35.3813
N 114.2613 116.3432 -40.0704
H 135.3082 146.8286 -23.9137
F 27.4244 4.6009 48.4295
H -175.1244 175.9727 234.8844
19

O 9.3690 -68.3106 -75.0322
N 7.7855 -40.2861 -45.9647
F -5.2796 -30.8747 -17.8564
N -7.2370 -2.4387 2.4717
H -18.9878 15.5270 37.9455
N -11.2358 36.8128 54.4908
F 5.2865 50.7106 40.8330
C 14.2735 40.1564 21.5526
H 25.3683 22.2870 -14.7326
N 8.1063 -77.8374 -81.5525
C 4.2747 -75.3306 -78.3347
C -5.9196 -64.9793 -67.1026
O -19.3772 -35.3469 -11.2053
O -28.3333 -19.5955 37.3531
F -27.7524 4.9245 59.3995
O -22.1605 38.1206 77.1574
O 1.6183 66.2042 54.9720
N 23.3295 76.6787 29.3936
H 46.8715 63.5780 -23.7882
18

F 32.6965 79.1560 48.4200
O 18.8544 46.8730 30.7527
F 9.4045 26.6972 20.6430
F 0.8649 -4.9947 1.7137
O -9.5459 -33.4456 -13.8502
H -18.9609 -47.2843 -28.5426
F -22.8545 -47.3143 -39.0342
N -17.0506 -38.3421 -28.0557
N -6.2319 -8.4924 -10.7165
C 33.9056 87.4961 50.0162
C 36.8445 85.1638 55.9051
O 33.2509 72.1570 49.3254
H 11.5658 19.1248 25.6402
H 2.9525 -9.1423 6.8017
N -18.4748 -38.1150 -16.4710
C -33.6205 -63.7717 -41.1411
O -32.4135 -67.9540 -60.7493
H -21.1870 -57.8114 -50.6573
9

N -0.4089 -0.7076 2.7964
C 0.2251 -0.8161 1.8991
C 0.1626 0.4231 1.3098
C -0.3833 0.0878 0.5183
C -0.5875 -0.6971 -0.7736
N -0.3067 -0.4934 -2.2746
C 0.2941 -0.1418 -1.7487
C 0.5216 1.1526 -1.2744
O 0.4830 1.1926 -0.4523
17

N 85.6233 -51.9247 -4.0127
H 48.5715 -33.6408 -7.9336
N 25.6470 -15.3973 -10.0403
F -2.5673 4.3135 -8.4726
O -35.5282 21.3049 -3.5879
N -55.8498 25.3343 14.0414
O -49.5377 37.8409 19.2233
F -42.3055 35.3403 0.5231
C -22.2911 19.1096 -3.6629
F 95.9469 -75.3009 -12.0169
O 83.0935 -56.8144 -4.1098
H 65.1131 -65.0808 -10.1446
H 19.6191 -8.7076 -9.1927
C -11.7800 10.4654 5.0217
C -58.0579 48.9390 22.0804
N -61.7053 53.4716 2.7842
F -83.9916 50.7469 9.5000
20

N 56.9909 24.4697 35.3799
C 26.9347 20.4184 10.6909
C 16.8754 28.1559 -11.0390
N 2.5282 22.5029 -14.8546
H -7.5476 16.1255 -12.8663
H -33.4691 -13.0395 -5.0487
O -44.5548 -43.4266 -9.7679
F -30.2111 -58.0081 6.5804
C 0.5393 -41.2461 46.9882
H 66.7057 32.1547 37.1281
H 31.1615 42.9543 -8.6464
O -8.6251 50.3985 -57.9207
F -9.7852 46.0242 -105.0658
O 35.2017 70.9622 -47.2547
H 65.7791 87.3936 44.0394
O 99.2753 62.1829 163.2691
F 81.1740 9.1884 207.3291
O -6.5693 -72.3428 130.8288
N -82.9901 -138.3632 -10.2838
H -259.4135 -146.5052 -399.4859
22

C -189.8280 -23.5331 8.4587
F -109.4548 11.8866 -37.5409
N -21.8050 232.2087 -107.5539
O -21.4305 53.5528 -243.5775
C 113.9148 -65.8230 -131.3976
H 116.9076 -200.7488 26.2105
N 161.2991 -221.2068 163.2039
C -60.5763 -49.3880 126.8372
H -261.8846 202.7554 162.7843
H -242.5036 92.8871 -17.0367
F -9.9147 110.8454 -182.4356
C 226.1590 257.7930 -323.8389
C -28.6538 442.6591 -281.4718
C -221.8384 10.9082 21.1335
N 76.6077 -123.6604 110.1040
N 215.2117 -52.2151 305.6254
N 42.4196 -84.3735 118.9617
O -316.4207 -213.3599 150.4555
O -441.3464 -161.3123 284.4666
N 698.2369 45.4839 18.2572
F -68.6883 63.3408 -478.0287
H 343.5889 -328.7002 306.3831
19

F 217.6795 -141.0762 240.8357
F 145.2869 -86.2365 146.0382
H 114.4600 -57.2264 90.0101
O 47.9844 -11.6728 2.9923
H -45.1791 25.2782 -95.8283
C -122.5821 78.3715 -137.8526
N -170.7074 92.8655 -153.9895
F -172.0821 89.6861 -115.0529
C -105.6496 45.7811 -31.1664
N 245.9889 -154.4291 264.4833
F 254.4217 -150.7919 250.0806
H 254.7351 -144.1344 224.3843
H 163.8730 -50.8842 89.6294
N 105.3395 -13.5647 13.3006
O 6.4793 8.4576 -99.2388
N -128.6653 78.1137 -179.2887
N -250.7312 143.2318 -222.6419
C -295.1378 147.0312 -192.5846
N -265.5136 101.1997 -94.1107
16

C 42.8721 12.3401 -18.6802
N 21.5919 7.4099 -9.5830
C 5.5854 5.1561 -4.3059
F -7.4068 -2.5483 0.4280
O -27.9646 -10.5398 7.6157
N -27.4692 -10.3576 7.4412
N -17.6826 -9.7093 10.7111
C -15.7367 -6.4156 7.2259
O -1.0334 2.6794 -4.3177
F 49.1326 11.8439 -20.4661
H 46.9591 14.3015 -18.4745
N 34.8806 15.7410 -13.2425
H -5.4514 7.0347 -0.2152
N -19.3892 -3.3303 4.1393
O -37.7185 -13.4527 25.3406
H -41.1693 -20.1531 26.3833
16

C 52.7919 24.7518 -40.3510
N 27.8325 15.8294 -19.6641
H 4.6097 9.2280 -5.3179
C -9.2973 -6.2621 4.0500
H -37.8357 -16.3404 19.0120
N -45.9413 -17.0916 16.8628
F -17.4595 -12.8635 26.6914
C -15.2727 -13.7674 14.5297
C 0.6815 1.7486 0.6894
H 62.4726 22.9611 -43.9670
H 58.8725 29.3599 -42.1227
N 48.9025 13.2578 -28.7645
H -1.2028 9.8197 -4.2987
N -25.8837 -0.2539 13.7928
O -50.7392 -28.9484 44.7518
H -52.5310 -31.4292 44.1063
20

O -109.9667 48.2877 -226.8804
F -64.8922 32.9583 -136.4085
F -55.4605 34.8048 -72.8824
C -9.6744 40.3323 3.4263
N 39.1161 18.5133 90.8867
N 62.9810 -21.3527 142.9652
F 72.7840 -59.1916 134.3507
F 65.2931 -74.9297 98.1427
C 60.0088 -45.1425 8.4974
O -116.1406 47.0628 -242.9883
C -153.3205 43.5011 -233.9351
O -183.7768 23.6837 -194.8859
F -113.6388 38.3653 -60.8079
O -2.6485 97.4909 22.1877
C 112.7301 121.0984 77.7507
N 219.1802 138.2150 137.6599
H 266.1741 89.0543 137.4936
C 173.7650 -42.9138 145.5093
H 45.4568 -170.0189 98.4854
H -307.9704 -359.8185 71.4330
15

N 2.4060 0.5469 34.0476
C 2.9652 -0.2271 23.4205
F -2.9038 -2.0831 10.4403
C 1.9583 -0.4957 -8.6013
C -1.0150 0.0961 -18.6281
C -0.5767 -0.3575 -25.6237
N -8.1126 -1.0474 -24.7699
N -3.4258 0.9963 -13.1825
H 1.5094 3.5728 5.3288
H 1.5130 5.4428 33.1861
H 2.9829 -1.6195 24.7647
H -1.2699 -7.2524 26.5129
H -1.2756 -1.4620 -3.5171
O 3.1169 0.0483 -28.3064
O 2.1277 3.8417 -35.0718
21

N -72.5498 -114.6823 -138.3660
O -16.9162 -75.1950 -90.3834
O 17.0580 -81.5806 -91.8821
H 62.7259 -89.3211 -31.3857
F 68.1313 -90.3495 28.8216
N 74.9133 -40.3496 125.2412
F 32.9507 50.2853 145.3348
F -78.1328 235.5170 105.9274
H -179.6187 340.1979 7.3305
O -81.8807 -131.0589 -150.4082
C 0.7643 -174.4662 -157.2176
H 44.3399 -192.1981 -117.0537
H 82.3958 -122.9987 -137.6661
N 104.9667 -155.7878 -125.4402
O 84.9347 -154.9395 -74.5962
H -49.5405 -143.0060 56.6903
O -172.2507 -87.1707 202.2929
N -143.8789 2.6787 390.4784
N 28.2835 165.6560 320.3363
H 405.4672 269.1544 30.7786
H -212.1632 589.6145 -298.8327
13

C -11.1366 0.7900 -0.0549
C -4.9419 1.3702 -1.2199
C -2.8644 0.3023 -1.8447
N 2.2308 1.5395 -0.3696
C 7.1574 0.8124 1.9050
C 9.2264 -2.6888 3.1885
O 6.8711 -2.0387 0.0073
C 10.1546 0.4020 -1.9154
N 8.9114 0.7496 -2.9909
H -14.3960 -0.2506 -1.4285
H -8.6948 -0.8176 -0.2778
H -3.7553 -0.6517 4.6187
H 1.2372 0.4816 0.3822
21

F -215.3598 -44.2948 191.0968
F -93.7828 -46.6153 105.4696
H -0.5532 -18.5025 16.1140
C 157.6503 41.1845 -26.0793
O 237.5421 44.8718 -54.9349
C 198.4376 69.0124 -30.0707
F 66.5827 7.5294 -78.5568
O -166.2074 -10.8983 -113.4255
H -351.9238 -64.9516 -19.2560
F -226.4152 -81.7485 221.1016
N -102.0986 -45.2991 146.5068
N -35.2240 -28.0649 85.8886
H 189.8306 124.2201 -110.2294
O 311.5114 129.6625 -96.5002
N 371.7390 178.4552 38.0882
C 321.5533 -18.2558 233.9543
N 96.2775 -142.9233 207.8936
C -38.9927 -175.4132 173.4787
O -201.6373 -174.4522 -92.6515
H -40.1906 149.6927 -671.7323
H -478.7392 106.7912 -126.1555
23

F -7.6502 -488.9542 203.6405
F 32.8869 -286.6345 20.1942
C 30.3102 -97.0560 -156.4375
O -8.9179 84.4346 -181.2635
C -43.2289 253.6807 -78.7444
O -74.5689 343.4630 65.7112
F -22.0669 142.9111 81.9182
C -41.1265 9.3731 -70.9165
C 103.6740 -147.1736 -199.6505
F -11.8951 -656.1061 175.2173
C -19.1791 -431.2724 333.7475
C -76.0441 -249.6962 238.0909
C -15.1245 237.3678 -240.9908
H -96.9031 102.2381 -251.2555
C -207.3534 -33.8749 -186.9719
N -97.3898 120.1766 -79.7959
N -271.6618 181.7696 366.7930
N 8.4074 18.2269 347.7922
N 76.3273 300.1693 469.4221
O 425.6721 586.3488 268.9678
H -72.8668 -266.4107 -457.8977
H 43.6164 24.8573 -179.3538
H 345.0825 252.1616 -488.2169
23

F -43.7274 240.1505 -89.4770
H -35.9568 140.9461 -115.9683
C -17.1539 24.9708 -123.3448
C -69.3785 -99.3788 -49.9539
F -138.0121 -140.0364 24.3468
H -133.3955 -182.1595 90.3214
N -58.4319 -119.6752 175.7360
H -56.6786 8.1816 110.2826
C 23.1326 -82.8502 -99.9214
C -7.8672 321.9375 -66.7610
F 232.7314 247.8401 -87.7008
N 373.5824 204.3850 -150.6993
F 193.6230 -53.2640 -203.6548
N 54.9131 -131.0967 23.0764
F -291.7514 -179.3392 162.1611
N -308.0521 -116.9781 -109.6174
F -583.6694 177.3016 -151.5245
C -419.3523 110.6811 -241.1969
H -178.8153 -464.1767 -38.6764
H 357.8908 -116.2689 20.4967
O 0.0941 244.2041 257.5125
O 305.6786 549.4213 877.5988
F 800.5966 -584.7957 -213.0356
17

O -30.3178 -57.8220 -26.6920
O -18.9835 -30.9782 -12.6348
C -10.9828 -14.7190 -5.6972
H 3.9198 5.1619 3.7411
C 17.9479 26.6869 10.6041
O 22.1189 37.5876 13.2001
N 17.8437 36.7326 11.2584
F 11.7362 21.5502 4.8220
O 0.2702 6.5093 -3.3186
O -33.5441 -58.5104 -22.8578
N -35.4211 -58.0125 -20.6936
H -36.5371 -53.9493 -16.7879
H -1.0742 -9.0944 -1.1212
O 10.3416 14.3390 11.4118
N 22.6066 40.4882 15.3601
O 33.8610 49.8553 25.1053
N 26.2147 44.1748 14.3004
19

F -16.4559 17.0091 116.4743
C -9.4644 11.8517 70.6960
H -6.4568 10.1888 44.3092
C -1.7800 3.1981 3.7215
H 4.3115 -3.6383 -43.2101
H 6.8892 -5.7278 -70.5995
F 9.8566 -13.2496 -77.7906
C 8.2591 -17.8070 -55.1086
C -0.7850 -14.3918 -9.0149
H -16.3227 21.3123 128.0001
C -12.3633 15.9068 123.7648
O -7.1082 18.4032 108.0076
H -0.7245 13.3077 53.4288
N 1.1855 19.6721 8.7647
O 3.1124 3.5533 -48.4513
N 9.5136 -4.1133 -96.8433
O 7.2161 -17.4410 -113.6917
C 15.0327 -27.7234 -100.8473
N 6.0840 -30.3110 -41.6097
17

C 16.5492 -10.7215 -26.2458
N 9.7404 -5.7016 -15.8424
C 1.1301 -1.0618 -9.6837
N -3.0745 2.8145 -0.2099
C -9.4724 4.2571 8.6857
C -9.4930 4.9630 15.7230
F -5.2598 4.4363 17.2447
N -4.2383 4.4719 12.2173
F 2.0585 0.9120 1.4984
F 18.9971 -13.3926 -27.8295
H 18.5842 -7.3190 -25.4243
H 14.5361 -10.2177 -23.7215
H 1.5606 6.9749 -5.0462
H -6.6893 6.9251 4.7946
O -16.4675 5.6499 19.0871
H -19.3680 3.2320 28.0760
H -9.0934 3.7777 26.6765
18

F -33.9663 125.0713 -62.1559
F -20.9115 77.9063 -37.3814
N -5.1579 52.8473 -11.8594
N 12.3468 9.9451 17.9061
O 18.3507 -42.9428 33.4478
O 23.4430 -73.7005 30.2060
F 14.3865 -99.5053 23.8582
C 4.9459 -77.7580 22.5184
H -3.4181 -34.3503 4.0829
F -34.4109 151.5254 -61.2827
C -38.3002 147.1133 -62.5239
H -30.3374 131.7998 -38.1006
O -0.9905 59.8129 17.9943
N 8.3068 20.4995 24.8942
C 0.5673 -41.8228 32.5099
O 30.1950 -108.2914 31.5534
F 25.2833 -154.8925 26.7244
C 29.6676 -143.2572 7.6083
14

C 4.5420 2.2270 4.2783
C 2.0333 1.8012 2.3227
C -0.2011 0.3668 -0.3452
C -2.7553 -0.1522 -1.0227
C -4.7046 -0.1852 -2.3467
O -4.1341 -0.9192 -3.5608
O -4.5166 -2.9693 -4.4191
N -2.3728 -4.8377 -1.7322
H 1.3744 -5.9399 -0.7236
H 7.3995 2.4993 5.6214
H 5.2332 3.3650 2.8561
H 3.6350 4.7399 1.6263
H -1.8460 1.0278 0.2540
H -3.6869 -1.0235 -2.8086
22

F 394.2169 -149.4471 432.6864
C 220.3056 -5.2093 290.6240
C 141.8899 -43.2054 107.6705
F -22.1459 54.0821 114.4501
F -189.9319 -32.1026 -71.3582
C -393.0752 -43.1320 -132.7088
C -431.1099 -64.9559 -385.9535
F -15.6701 60.9051 -368.0363
H 98.8849 204.0423 0.9320
O 363.4288 -209.3001 513.1142
H 377.7287 -65.7862 348.4914
O 212.6003 -117.0334 273.4136
N 227.5768 349.0741 -77.5321
N 203.6422 379.7675 -163.9637
N -57.2614 -157.0477 -115.0774
C -244.9942 -315.2603 68.8425
F -108.8004 -106.9367 -187.7889
H -10.4013 269.9265 15.4818
H 391.2704 567.0795 -137.5079
N -1038.2769 -560.5909 -482.3316
F -219.9285 274.3091 265.3020
C 100.0512 -289.1786 -308.7503
21

F -157.4210 92.9920 100.7142
H -93.2476 65.7818 47.9796
F -78.8614 50.0635 18.0303
C -46.6364 21.2746 -9.3089
H 6.3004 -29.8547 -29.5931
H 40.4350 -75.4486 -28.1518
F 88.2868 -91.9888 -24.1904
F 140.2959 -63.3585 -40.5779
C 150.1394 -16.5636 -39.3926
O -175.0420 98.8773 118.2297
H -188.1375 98.0265 95.6763
O -189.0346 96.2495 41.5739
H -104.5982 86.7560 -43.0560
O -33.3849 64.4109 -52.8428
H 28.2122 15.3150 -66.4734
N 112.2398 -50.8852 -22.5003
H 130.4826 -85.6319 75.4794
N 61.3221 -162.2125 135.8072
N 20.1790 -155.7113 136.7249
C -50.0271 -71.0275 -154.3655
O 338.4976 112.9356 -259.7629
17

F 29.3130 25.1703 -5.5581
C 17.1494 14.5207 -2.6162
C 8.1109 9.1942 0.4979
N -3.8921 -0.2047 1.7574
F -15.6516 -10.6016 3.8000
C -22.4155 -14.6806 2.6340
F -14.5185 -11.2912 1.1857
C -6.2883 -11.4591 -0.2400
O 0.6422 -5.2716 -2.1483
H 31.4475 27.8988 -4.8057
H 29.6918 24.6024 -6.0707
N 25.8524 18.2742 -1.4936
H 5.9629 10.1363 2.5881
C -10.2632 -4.8300 5.4862
H -27.6347 -18.2920 7.0252
N -27.8168 -29.7176 0.8087
N -19.6894 -23.4485 -2.8505
19

C -90.5583 -98.9730 -84.0382
N -56.7414 -61.8323 -50.5558
F -55.4627 -44.5363 -27.1803
N -28.5765 -16.2695 2.3405
H 2.4378 20.9521 31.7683
N 46.0051 54.0848 50.0466
F 82.6632 74.8002 49.7802
O 86.1139 66.4111 33.5527
N 65.6395 30.2051 5.7532
N -95.1121 -110.2054 -92.2883
C -105.6372 -107.1332 -89.7791
H -111.7676 -100.1433 -76.4920
F -85.5259 -54.9541 -26.7916
O -68.1375 -30.4905 8.7026
C -17.4341 5.1528 41.0673
N 40.1959 57.7089 70.3518
H 111.7395 96.5271 65.1555
C 142.4924 120.3788 61.9887
H 137.6659 98.3166 26.6179
22

F 100.9696 -79.7900 222.7258
F 41.2098 -55.0552 85.4954
C -22.1452 139.8867 -30.9804
O -158.5306 76.8564 -247.7286
C -123.7001 -7.1183 -218.2855
H -111.4270 -55.3225 -133.0327
N -9.6206 -11.1076 -22.9834
C 23.1195 -8.1661 8.2486
C 119.5346 -161.8139 250.2519
O 70.6038 -33.3135 272.4472
H 140.5786 34.8425 103.9019
F 84.7924 88.6190 -74.1019
C -248.2539 270.9649 -182.5866
H -353.0876 22.9331 -53.1795
C -3.9852 -85.8632 -144.4097
N 301.9504 31.3860 35.5060
O 393.2795 156.7693 85.1996
O 12.2062 -194.0201 182.9852
N -216.3976 -531.1537 600.1987
H -186.6684 -601.4294 45.8728
F 345.9272 -10.9916 -413.0714
H -200.3554 1012.8871 -372.4734
21

F -43.6614 -56.6412 -9.7803
C -23.4757 -30.7412 -47.4551
O -50.7290 -36.3079 -77.5064
C 16.8871 -50.8694 -80.2184
F 69.4817 -20.1758 -66.5485
H 97.8679 33.5651 52.8612
F 44.4686 55.6334 98.4424
N -46.8809 99.8239 109.9951
O -179.3597 62.6928 65.1240
C -57.6850 -73.0059 -5.3998
F -28.2418 -81.1870 -8.2668
C -96.8955 -75.2596 -62.4620
H -104.8604 -46.6055 -253.4174
F 29.2082 -144.1281 -286.4119
N 127.2895 -174.8873 -247.6179
C 346.7227 -69.0562 -37.0880
O 391.6998 123.1510 246.3940
H 396.2459 192.9623 447.4540
F 144.6794 319.9048 474.5977
N -397.7164 -2.0514 -42.6500
O -635.0451 -26.8169 -270.0458
18

F -49.0944 -113.1266 58.8669
F -26.0939 -63.9221 36.6458
H -12.5984 -41.0629 24.5779
H 3.3012 0.6562 -1.4738
O 21.0176 43.0831 -28.7014
H 29.3706 70.4351 -35.3439
F 28.2461 74.2843 -41.1443
C 21.5862 51.8896 -25.5313
N -0.0475 15.1726 0.0082
F -51.8529 -124.8451 63.5612
N -58.5234 -119.5943 67.6007
H -55.7302 -107.2469 58.5805
F -16.2794 -33.4640 26.9297
N 9.6158 7.1844 6.0824
N 36.5468 51.3689 -36.0740
C 46.1002 92.1784 -54.4142
N 38.7548 105.7445 -72.0871
C 35.6809 91.2650 -48.0834
14

N 6.9914 -5.4638 -0.2890
C 2.8967 -3.3459 -0.5064
C -1.2876 -2.1389 1.0402
C -4.2748 0.9699 0.9610
C -5.9816 4.3612 0.9825
C -4.7267 3.4066 -0.3863
C -1.6122 3.0191 -0.3728
C -0.6826 0.9717 -0.8108
O 1.8066 0.8014 -0.8950
H 7.5473 -5.9940 -0.6002
H 5.6670 -2.3318 -0.0353
H 0.4133 -0.9494 -1.7108
H -2.8471 1.5389 1.2547
H -3.9095 5.1549 1.3681
16

C 58.4915 3.4209 -136.4642
N 27.8334 3.5352 -80.6474
C -3.0881 8.4990 -28.8512
C 9.2809 -6.7403 31.1349
H -29.7569 -19.0514 89.6402
N -38.8897 -4.3490 92.9194
F -28.0475 4.3000 69.5387
N -33.4458 -1.9569 46.5697
H -1.4687 -7.9702 -15.2539
N 71.5735 6.3821 -146.6540
H 57.2589 -5.6322 -140.6214
H 37.9305 -2.9173 -109.5607
H -6.8511 -3.7539 -10.8131
N -21.5807 12.8485 67.3657
O -40.5669 12.1432 127.5107
H -58.6735 1.2424 144.1867
15

N -7.7334 10.3614 -12.9435
C -3.6310 5.3049 -6.7274
O -0.8692 1.5770 -1.1123
C 1.8756 -1.9810 4.5831
C 2.9627 -4.6913 7.9370
C 3.6661 -4.1996 8.6917
N 3.5286 -3.9664 6.3925
C 1.7058 -3.1557 4.4447
C 2.4231 0.0013 -2.1040
H -6.4540 10.8751 -16.0550
H -5.2699 8.2144 -12.8655
H -4.5877 5.4347 -7.0986
H 2.4858 -5.1814 2.7758
H 6.3919 -10.9209 12.1770
H 3.5057 -7.6724 11.9044
18

C -125.2401 -138.1395 146.3295
F -75.2153 -84.5813 89.0285
H -55.1845 -62.8010 58.7196
C -1.5575 -2.4895 -4.3986
H 52.5050 45.9312 -59.0188
F 72.0687 86.4189 -85.2228
F 77.2255 97.4844 -98.6053
O 53.0321 79.9172 -68.1041
N -1.5210 13.6704 -6.9569
N -127.8807 -156.8136 167.3748
O -129.3335 -144.7109 162.0764
H -107.0172 -142.3397 144.8340
N -18.2382 -61.3742 42.3004
N 12.1488 -12.6659 -20.1167
C 67.0630 56.4212 -97.6768
N 110.6533 127.1992 -136.5701
N 105.9757 158.7604 -151.2713
C 90.5161 140.1127 -82.7217
13

F -9.1933 -17.1543 -5.6450
C -3.2754 -9.8515 -2.4458
C 1.9467 -6.3777 -0.4762
N 7.8441 2.2384 4.3246
O 9.9557 9.9311 7.1795
O 7.6402 16.1954 7.7923
O 3.7692 19.2648 2.8864
C -0.4265 17.8832 1.5507
O -1.3087 16.7565 -0.0485
C -6.0949 -22.4153 -5.8102
H -8.4851 -23.6439 -0.4704
H -5.3393 -7.9213 -10.7575
H 2.9672 5.0947 1.9200
18

H -190.5345 -1.6098 -72.0160
F -117.1772 2.2643 -42.2811
C -71.1607 1.6541 -29.5674
N -2.1385 -1.8574 -6.5501
C 74.7252 1.8321 19.8153
N 127.8291 13.7922 41.8949
O 132.1296 0.8337 42.7409
F 101.3745 -4.7584 29.4936
H 35.5620 -13.6491 25.4387
H -190.8163 9.4466 -80.2119
F -198.4397 -2.7740 -72.4128
N -185.6417 -6.4310 -54.4762
C -85.4614 -5.1216 -33.3237
C -9.0567 7.8424 22.1175
N 76.6487 12.6950 21.9182
N 163.0271 9.5425 75.7768
N 183.0618 1.8641 52.3123
H 156.0686 -25.5657 59.3307
20

H 59.3739 98.2442 -8.1184
F 38.1938 61.0383 3.1027
N 33.7925 54.1604 14.1983
C 21.4934 26.7341 6.5889
N 1.9679 -12.7988 2.0100
N -29.7885 -54.6381 -4.2016
N -56.5301 -83.7465 -2.0908
N -59.7073 -74.8785 -1.4975
N -24.2451 -33.4381 -27.7859
F 63.3811 103.9110 -6.8506
F 51.5677 86.9852 19.2886
F 32.4822 66.3197 61.0654
O 27.4573 59.7203 78.2160
H 49.3126 70.5071 17.9224
H 63.2362 45.5372 -93.1321
O 69.4368 37.1670 -187.2370
O 48.6886 -0.6268 -224.0851
H -48.1458 -83.7039 -101.9085
H -116.4701 -139.3008 78.4458
N -225.4970 -227.1930 376.0695
19

F -56.1130 24.5234 -130.9057
C -40.8921 18.8484 -91.6229
C -40.2272 15.8340 -90.5616
N -18.1565 5.8002 -53.3818
F 8.0896 -4.3190 4.5429
H 24.1402 -18.7543 69.1189
O 43.2740 -32.0461 120.9951
F 41.9603 -26.8149 132.8687
C 52.9757 -12.8636 109.3138
H -45.4047 31.8204 -136.7014
H -67.5796 34.9689 -167.2746
O -81.2575 44.9833 -166.6917
F -46.5402 33.9812 -149.4549
O -37.9844 13.8096 -117.9471
O -5.6048 -4.5119 -53.7389
N 42.4060 -18.1902 67.5503
N 64.2164 -37.9735 181.1291
H 82.3419 -34.3499 255.3420
N 80.3559 -34.7461 217.4196
17

F 12.9443 41.6029 43.6067
O 9.2067 23.8312 25.2788
F 4.3794 13.9335 10.8019
F 2.7789 -1.0288 -3.0526
O -2.5620 -18.3061 -19.5059
H -4.7854 -27.2693 -30.0552
F -7.0834 -24.3404 -29.6919
N -9.2059 -15.3996 -18.1449
C -7.4834 -1.2225 0.0784
N 10.1884 48.5452 53.8297
C 8.9011 45.1760 48.1511
O 12.6081 33.1382 43.2840
H 0.3704 11.9043 13.1750
O -1.5359 -18.2998 -16.9499
N -11.0744 -33.0672 -36.8066
N -4.0470 -45.8585 -45.1891
O -13.5999 -33.3393 -38.8094
17

O -100.3102 -37.0555 -4.4690
F -62.3694 -34.3676 -3.9540
C -30.1917 -15.5167 -12.9514
C 11.3352 11.5145 -8.7759
F 57.0894 26.7786 1.6092
N 67.0793 48.8755 5.1138
F 58.5684 25.9782 1.0913
F 44.4361 9.2516 0.9161
H 4.3523 -16.0070 7.7107
F -117.6713 -37.9815 2.6654
F -123.3803 -43.1412 -9.9298
N -103.1754 -56.9133 -3.2698
C -14.8319 -1.2288 -10.8552
C 28.3311 21.2836 -7.8744
O 77.6910 39.7401 18.6706
C 93.6901 17.3649 11.5758
N 109.3573 41.4246 12.7266
17

N -36.1577 40.7916 135.5625
O -13.0381 31.8105 84.7797
F -14.5365 18.4428 39.5833
O 12.7642 1.6572 -11.5830
F 25.5735 -28.7922 -69.2608
N 18.4265 -32.0249 -90.6060
C 18.6485 -23.3339 -86.5999
N 1.4743 -14.2786 -60.8844
C -4.9197 8.6475 1.5243
O -46.0745 51.4160 164.5294
C -36.8038 43.4800 144.6943
O -27.0749 33.3720 119.5302
H -8.0019 4.6161 37.6392
O 10.0671 -21.8182 -57.0459
N 19.2256 -28.6976 -103.9583
H 45.2440 -47.4057 -134.2710
O 35.1834 -37.8826 -113.6334
16

H -40.1337 1.2793 -14.6689
H -20.9041 1.7072 -9.0068
C -3.5659 2.5042 -1.6385
N 11.3005 1.9311 3.5193
C 18.6375 2.0253 7.9211
N 22.5225 0.4792 8.1041
O 20.2731 -2.8443 7.4383
C 12.3263 -6.9121 0.0419
C 0.2591 -6.4823 -4.2306
O -42.8467 -1.9914 -16.0581
F -35.9339 3.5491 -10.4475
H -33.6544 2.8988 -3.3039
C 3.3422 4.9227 -3.7347
H 23.5791 -0.8301 10.4576
O 30.4290 -0.3868 11.6926
H 34.3695 -1.8498 13.9142
22

N -131.8687 -129.5184 271.3458
N -29.1393 -102.0550 126.7339
H 31.5535 -105.7896 33.2677
O 85.1614 -19.5685 -22.2224
O 17.9911 100.7950 -83.5346
C -0.2997 212.0092 -109.2652
F -58.4532 230.2920 -111.3240
O -48.0692 113.7904 -131.6063
H -4.0348 -200.3963 -18.4430
C -158.3142 -108.0883 381.8310
C -35.3681 -199.9933 204.6861
F 14.8070 -253.4681 -77.2778
H 361.4393 -76.1169 -94.3971
C 335.4817 35.8269 68.1999
O -61.1674 -74.3783 -17.0481
O -148.4738 -249.3788 85.9688
O -153.7995 -69.0014 -80.0056
H -13.6563 294.3399 -337.1805
H 105.4178 290.7764 -176.5881
C -221.2778 655.2936 -365.0460
H 269.6400 -440.5985 399.2627
N -157.5701 95.2281 52.6429
18

C 71.7672 7.8660 -52.5688
N 45.1307 4.5135 -33.7284
F 24.5459 6.4186 -17.6829
H 2.6674 5.5824 0.8799
H -28.2750 0.1007 21.0283
N -44.9847 -10.0514 36.0848
F -46.8916 -10.4690 34.8738
N -38.8213 -9.3509 22.8516
F -12.5915 -1.2495 -0.3433
F 77.5622 8.6211 -60.2208
C 79.6546 13.0923 -56.7938
H 70.0386 8.1620 -50.9295
O 24.8589 11.9525 -20.6822
C 1.5658 5.5143 3.9289
O -32.2933 -1.4464 30.2203
O -60.0506 -9.2534 50.2228
O -75.1055 -14.3383 52.9813
N -58.7776 -15.6644 39.8780
21

C 29.9318 142.4776 -140.7139
F 18.8526 79.6967 -78.7059
F -15.9502 29.4069 -25.9321
N -31.1112 -57.7464 3.5454
H -31.3843 -141.4933 53.1760
N -24.4259 -179.4960 66.3124
F -7.2552 -114.9587 54.6443
C 28.2691 43.8062 55.8748
H 68.7971 235.5169 7.7587
N 42.0300 133.6084 -145.8982
F -9.2479 111.3063 -114.7507
N -86.4536 59.3547 -66.1259
H -106.5708 24.7483 22.0097
N -44.0935 -18.1005 27.8679
C 13.2297 -122.6313 25.6336
F 90.7954 -219.7705 -34.2011
N 136.5693 -254.6290 -67.1861
C 99.6812 -258.1182 -2.4100
H 59.6046 -102.9753 39.9350
C -248.0932 -31.7789 223.9251
H 16.8249 641.7759 95.2410
21

C 36.4651 77.8177 -45.1132
F 13.9281 38.2389 -13.7552
H -22.4724 16.5916 38.1625
H -50.3362 -17.7217 109.9558
H -21.2806 -47.8337 130.8013
H -7.1008 -92.3846 86.6265
F 20.0075 -86.2608 -45.4563
C 35.4662 -10.9349 -138.2464
H 16.6894 107.4841 -161.6290
N 69.0819 72.6173 -45.2465
N 0.0678 61.0348 -37.4459
N -98.0585 18.6559 -19.6921
H -144.4056 -6.2389 48.1264
N -61.8068 7.7533 159.4279
C 58.6328 10.9080 305.1510
F 172.0707 53.1118 378.2501
F 251.1923 47.8367 247.8332
C 231.0154 -37.0386 82.0645
H 146.4883 -29.3601 -281.0243
N -380.3652 -419.4336 -577.1136
H -265.2793 235.1568 -221.6767
20

N 4.4181 25.3779 -10.6438
F 2.5014 21.5986 -2.2076
C 7.5915 30.0774 -5.2358
H 21.3491 23.0725 -1.0974
F 21.9702 3.6405 4.8865
C 7.2545 -8.5247 10.4766
H -22.3475 -24.3220 6.2514
O -31.0612 -37.2405 8.5102
C -8.8689 -54.9289 12.0906
H 2.1704 29.3710 -10.0053
N -17.4867 48.0731 -22.1643
F -29.8643 75.4413 -44.9938
N 8.2033 71.6740 -38.3270
C 43.6327 39.5364 4.7254
O 73.4860 -10.4080 24.8490
O 129.9329 -103.5263 53.7695
H 140.6757 -175.1422 69.5736
N 51.6981 -135.7878 37.6207
F -88.1621 -38.9025 9.4949
C -317.0932 220.9203 -107.5732
21

F -109.4453 126.6499 -66.6615
F -59.8343 78.3274 -31.9518
H -33.3573 86.7653 -17.0035
N -5.6154 91.6755 25.5027
C -11.7408 50.5006 61.9113
O -4.7404 -31.5557 57.0062
C 27.2094 -132.0154 25.3540
F 87.7905 -177.5993 -14.6029
H 125.9656 -160.9648 -57.9300
F -142.4674 151.5298 -63.8457
N -113.0978 143.7206 -54.2723
N -67.5830 137.6386 -42.4089
H 46.1273 170.0385 25.9848
O 58.2054 194.4280 69.8841
N 2.8802 201.6910 75.0391
O -89.8799 80.0282 66.1083
C -172.6992 -37.9826 18.6531
H -222.2763 -194.4087 31.2482
O -80.2524 -327.7859 -29.4809
H 224.9650 -328.0739 16.5956
H 539.8459 -122.6071 -95.1299
21

H -167.5760 47.5012 33.3557
F -68.7231 8.4886 25.4714
H 1.9327 23.7940 8.5705
N 113.9524 40.5883 -4.9885
O 128.7723 12.8606 3.0774
O 87.2561 -9.4780 8.0035
F 3.5186 -47.2839 1.7241
F -86.8811 -53.6484 -41.0281
H -145.2447 -43.4635 -103.8506
F -178.8777 50.4513 53.9214
F -79.4343 21.2655 88.8653
N -5.9439 22.7464 137.4675
H 184.7283 128.2043 127.8623
O 210.8340 79.6291 41.4988
O 230.3987 58.4596 -170.0691
N 116.7991 -60.6751 -307.9321
F -72.3961 -65.1366 -376.1816
F -192.4192 -88.3417 -70.1439
F -198.0849 -84.8493 147.7803
H 68.1021 -68.6328 620.8201
F 49.2866 27.5204 -224.2244
16

C 31.9897 10.4417 -60.4725
N 13.9696 6.6480 -35.0378
C -0.0202 3.7356 -13.3478
C 1.6609 -9.5469 8.2623
H -18.3295 -14.1852 36.2206
N -23.0458 -6.8355 39.9167
F -15.2564 -3.5279 31.7649
C -17.1439 -2.3813 24.3122
H -1.6931 4.0730 -9.9029
N 40.4636 9.3245 -65.1397
H 37.7428 11.7262 -67.2903
H 26.6245 11.6886 -46.9635
H -10.3762 0.3063 0.1176
N -13.9096 0.2809 28.4530
O -26.6893 -7.3140 60.6536
H -25.9872 -14.4339 68.4534
25

N -256.0466 -590.5394 -11.6268
O -187.1577 -377.7076 -69.2573
N 34.6227 -63.5887 -67.2616
O 4.2774 -37.4083 -123.3131
F 84.7142 -19.9577 -18.0034
O -13.3514 -19.4015 102.5745
N 25.1492 45.3315 179.0637
C -95.7965 281.8586 -12.6708
C -245.4027 333.5505 69.5710
H -79.8018 -370.7444 -27.6989
O 65.0544 -353.2726 -210.3880
F 26.1050 169.6766 -222.9123
F -126.5861 363.9962 -96.2184
H 114.2451 -272.4940 244.8021
O 35.6362 -662.2175 143.1314
N 212.6379 -61.9196 365.4622
C -414.0985 352.8575 -315.8740
O -539.8995 432.4550 -346.6376
O -125.8427 764.5522 -2.9055
C 856.6586 408.9191 451.6922
F -285.3047 5.1140 -151.6181
H 3.1432 266.0422 277.5147
H 311.0211 -288.9844 -538.5739
F 415.7766 -252.9108 -60.4612
N 180.2466 -53.2069 441.6092
20

N 37.5887 -100.4098 -2.3923
F 29.2575 -63.3054 -12.6542
F 16.8171 -49.9792 -33.9841
C 5.7552 -36.4335 -34.8808
H -21.9822 4.3151 -19.5573
C -30.2597 51.3218 5.2788
N -25.5607 91.0179 28.9540
F -23.6829 93.4314 40.6776
C -25.2072 44.6189 56.0525
F 42.5776 -107.7758 1.6321
C 65.3527 -93.0287 -32.2047
N 84.5547 -62.3911 -65.7251
H 59.0230 -54.1032 -104.7965
N -2.5374 -86.8509 -69.2537
O -64.1576 -83.3233 13.1002
N -124.6524 -77.6971 104.2128
O -142.5327 -27.9256 175.4858
C -76.1766 82.2624 133.5575
N 1.4541 170.9590 35.2731
C 194.3688 305.2970 -218.7757
20

F -24.2612 -35.3106 -70.5155
F -10.3231 -22.6610 -50.3387
H -7.8907 -3.0131 -8.5750
C 9.9855 -5.3718 34.9419
C 6.4633 -11.8236 58.6793
C 11.2716 30.0924 63.6107
O 2.8415 49.7679 22.5830
C -11.8940 42.9371 -5.7783
H 8.0814 -17.7305 -31.7940
O -16.0804 -40.6118 -92.2518
C -21.3649 -1.9429 -89.6569
H -22.0979 60.3429 -101.4354
F 20.3431 24.8609 -33.9557
O 1.0667 -81.7727 97.8628
C -17.6470 -173.6938 182.9808
N 33.7217 -279.3571 230.3313
H 86.2438 -309.0940 194.9041
C 97.1491 -106.8487 24.4665
H 23.1559 193.2886 -149.6605
F -168.7644 687.9420 -276.3985
15

F -5.9083 34.0021 18.3028
C 0.4340 14.7280 9.3319
C 2.3113 0.6146 -2.3574
C 3.4720 -9.2080 -3.9138
O 6.4016 -21.0440 -3.9412
N 6.1080 -22.0229 -14.5275
F 8.6318 -15.0488 -9.2602
C -4.9478 -12.1105 -6.1155
N -2.5735 1.5984 -3.1668
F -17.2076 40.1754 21.1680
H -12.1138 39.0574 13.8825
H -13.0990 23.0847 15.0996
H 5.0021 -4.1610 1.8314
O 13.6520 -36.6823 -18.4855
O 9.8371 -32.9830 -17.8484
18

F -99.8070 132.0600 -68.9053
H -65.2219 83.1613 -46.5613
H -29.9995 52.3885 -34.1682
N 10.7896 6.3670 0.4600
C 46.9004 -47.2444 31.1875
N 65.1230 -74.5037 42.4931
F 53.9812 -105.2453 47.5944
F 36.6527 -76.9880 32.9710
C 12.5685 -27.2137 9.8498
F -98.1233 159.4655 -84.2217
F -96.7126 156.0278 -77.9268
H -86.2254 138.7106 -60.1032
O -34.5015 49.4981 -7.6753
C 16.0634 0.7387 10.8540
O 38.1734 -54.6647 38.1893
O 85.6613 -112.8660 55.4951
F 82.9220 -145.9830 58.1793
C 61.7554 -133.7088 52.2883
16

F 18.3431 -13.5074 46.7178
H 11.7266 -5.1090 18.5461
C 6.1319 -1.2226 9.0604
N -5.1214 -1.7440 -3.7624
C -14.4825 -0.2537 -28.8817
N -11.8432 8.5574 -37.9768
O -20.3198 9.4892 -34.0385
C -9.8648 5.6857 -22.5427
C -1.1009 -3.3854 -0.8292
O 15.2965 -12.7178 55.4838
H 27.4171 -11.7503 52.3924
H 18.9933 -6.1145 37.0419
H -2.0392 -1.2988 -1.5443
H -13.6840 12.4182 -12.6557
H -8.5067 17.6881 -39.3849
N -10.9459 3.2650 -37.6262
18

C -98.3249 103.9211 37.2641
O -57.3183 67.8256 17.4291
C -39.0619 42.7441 6.4145
F 13.0894 2.9445 -2.8272
O 48.0447 -38.9094 -16.0409
N 63.5019 -64.5857 -29.9961
N 61.3754 -76.5104 -22.2961
F 40.0910 -59.1706 -16.2803
C 4.6780 -19.5820 14.4641
H -110.6808 130.1711 42.3590
C -109.1572 121.3566 39.2765
H -95.3593 113.8726 42.6486
H -38.5491 36.1195 21.1404
O 7.4414 1.2594 -16.1220
C 47.6343 -47.2921 -32.1292
O 89.0801 -91.8138 -39.1467
O 97.5799 -114.8622 -32.4815
F 75.9352 -107.4883 -13.6764
12

O 2.7976 2.4590 -1.7074
C 1.5955 1.6116 -0.8287
C -0.5710 -0.0269 -0.4436
C -1.6861 -1.4930 0.5342
C -1.4604 -1.4870 1.2314
C -1.5653 -1.4186 1.8492
C -2.8262 -0.0480 1.1728
C -2.0782 0.0910 0.3583
H -0.2444 0.2467 -0.5793
H 2.7771 3.1417 -2.3780
H 2.1870 -1.9725 0.0122
H 1.0745 -1.1041 0.7789
17

O -17.7867 -48.1333 -6.6513
O -10.8693 -27.9867 -3.8849
C -7.5448 -13.3950 0.9064
H 0.5187 6.1804 -0.2858
O 8.5549 21.0651 2.2293
O 11.8090 31.1630 3.7916
N 12.5920 28.8269 -0.4399
F 10.5154 16.3196 -3.7275
H 5.1791 -0.0092 -4.1294
N -20.2960 -48.7397 0.7342
N -24.8026 -47.9203 2.5864
H -21.9888 -39.5302 4.9593
H -0.2226 -2.8972 -0.6915
H 2.6556 6.2144 4.7754
N 13.0853 34.6478 3.1384
N 18.7188 46.7985 1.9474
N 19.8820 37.3960 -5.2582
13

F 3.9362 -19.4776 -7.4636
N 3.2749 -11.7024 -4.5778
C 3.7988 -7.5472 -0.0309
N 3.7154 2.0610 5.6898
C -0.9537 12.8913 4.8197
O -7.8208 19.4274 3.2044
O -8.8956 19.5111 2.6892
C -6.9067 17.1354 -0.1197
N -0.5351 12.2200 -0.5164
H 3.9166 -20.2937 -7.0638
H 5.9995 -14.7896 -1.4612
C 3.0576 -8.8342 0.9396
H -2.5871 -0.6014 3.8907
19

F 47.9875 48.3089 -181.5595
O 40.1723 24.6493 -117.3724
F 21.8886 23.6264 -38.6348
N 5.3629 7.0009 28.2913
H -18.6037 -22.5880 91.0873
H -32.1794 -33.1349 120.1051
F -25.8536 -29.0386 91.6892
C -31.5667 -25.7500 40.6777
F -7.4988 5.9312 -36.8014
N 58.5654 58.7925 -201.5599
F 46.7776 50.8955 -183.0759
C 33.2186 53.6441 -153.7160
F 31.4892 16.7538 -3.7137
O 12.2121 -7.6229 85.1618
C -15.0116 -40.2809 154.6967
O -44.8388 -42.5113 194.4846
C -74.3800 -48.2865 126.8783
C -60.5279 -45.3162 58.4479
F 12.7864 4.9268 -75.0864
17

F 97.3361 99.4374 0.6027
C 62.0288 50.1791 5.7297
F 33.2255 18.3979 7.2114
F -6.0946 -6.8557 7.8152
F -46.1773 -41.8166 0.8140
C -66.6498 -47.5273 -2.7998
F -62.2476 -32.7491 -19.4363
F -37.5457 -29.8791 -9.2500
H -4.9012 -14.0568 1.3616
C 98.3614 104.7425 16.0285
N 85.2517 72.4638 11.2435
N 83.0284 58.5893 24.1672
F 21.6358 20.7340 15.3616
N -17.1352 -51.4211 2.1300
N -81.8140 -68.4675 -17.4535
C -73.9573 -79.0374 -23.1906
O -84.3450 -52.7333 -20.3355
21

F -111.3139 -120.9112 -130.8099
F -68.9232 -83.1311 -75.5902
H -90.8653 -63.2923 -44.2787
C -82.7137 -66.9801 -11.1504
H -42.9591 -40.9231 -7.3331
C 36.6215 9.7274 -6.1509
F 111.4194 84.1608 17.6377
C 171.6339 153.5426 104.0898
N 182.6403 178.6527 209.8728
O -113.2237 -134.4456 -159.5037
C -170.8777 -104.7861 -149.9355
C -208.2114 -79.8832 -147.7397
F -150.6566 -59.5205 -36.4358
O -119.7434 -75.9914 51.5556
C -86.7730 -101.2019 148.4650
N -32.1330 -156.0872 135.4424
N 82.6413 -148.0122 22.2181
C 168.1970 -31.2719 -195.6534
O 267.6130 143.8211 -255.8314
N 50.4000 326.5436 -157.3221
C 207.2279 369.9895 688.4535
22

N -299.1940 218.7429 -88.1241
C -262.0367 195.9814 -94.1416
F -23.8678 149.3787 -42.6897
N -38.2501 136.1422 -11.9302
C 156.8685 62.4941 83.2858
N 155.5548 -15.7918 58.7537
F 215.1467 -302.2176 125.0958
C 84.4899 -313.7694 -75.0567
C -128.4890 -239.9808 -121.3844
O -376.2192 275.1546 -24.8875
F -264.6872 20.8985 -191.3974
N -243.7899 94.6327 -336.3507
N 125.5481 303.7285 82.3600
N 155.1315 132.7943 521.1058
O 138.0633 161.0328 433.3803
O 238.5243 375.3718 444.6707
F 47.8200 297.7318 -89.3022
F -157.0485 -61.8494 -465.4617
H -359.0773 -232.7617 -185.0347
H -24.9729 -511.3499 123.7082
F 291.5580 -678.8273 -120.9324
H 568.9275 -67.5363 -25.6671
21

F 106.3458 162.8963 -161.6765
C 49.7207 95.9251 -94.2782
H -34.5809 49.9894 -51.2432
F -101.4501 10.6148 -24.4036
H -152.1845 -45.1302 16.6037
N -111.3904 -113.0829 88.1012
F -6.1307 -111.0948 65.5878
F 114.7900 -76.6179 101.9802
H 171.5047 20.0620 58.2502
F 129.7172 169.3741 -170.9054
C 48.9005 155.0494 -137.9355
N -33.6172 101.6616 -101.7590
H -149.4244 36.5612 -50.3538
C -167.8759 -14.8921 -54.3154
N -175.5062 -52.9054 1.9876
N -113.5332 -2.5529 7.3435
N 23.8697 76.6912 28.8026
N 147.1131 45.1100 125.9276
H 221.3940 -33.9127 125.0427
O -51.4023 -459.8481 129.7805
H 83.7401 -13.8982 97.4631
23

N -121.4853 -145.4061 178.0755
O -88.5731 -83.5371 222.7270
O -66.5375 -94.7380 118.8134
F -128.2523 62.1383 167.2644
C -7.4747 -39.9399 -7.1040
F -10.4592 -271.4359 15.3939
N -15.0426 -94.5398 -166.4990
C 152.7348 102.7745 -50.9767
H 15.4029 254.8102 70.9568
O -124.4921 23.6182 102.9430
C -100.6622 241.5697 -201.0501
O 90.3266 347.2805 -59.0568
O 127.7394 253.6179 78.8466
O 133.6233 -53.0280 -2.1487
N 227.7333 -55.9433 56.6049
H -72.8352 -497.0155 -157.9739
O 14.5582 -292.0269 -507.5191
C -6.4758 505.0577 357.6874
H 707.1729 319.9787 454.4029
C 6.0272 -204.6559 -299.2264
O -39.4254 4.1358 378.8710
N -654.1586 -225.0256 -101.1133
O -39.4448 -57.6895 -649.9188
18

F -90.5212 0.1847 131.6477
F -51.5819 3.6136 79.6283
F -36.7235 2.5743 45.2952
C 1.1932 5.4805 1.1073
H 33.1756 -2.0903 -56.6463
N 56.3298 4.6372 -82.0534
F 61.4735 0.0449 -85.3232
O 48.5862 -9.1706 -67.6575
H 14.7151 -15.9995 -16.5666
F -96.8784 2.1728 146.8220
F -94.1135 1.9229 137.3541
H -83.1985 -0.0348 122.2837
H -33.9152 8.1453 56.9521
N -6.8363 16.9193 0.5517
O 36.2703 -1.0667 -68.3425
O 72.0796 -2.3884 -108.9786
N 87.6465 -5.1240 -129.3221
C 82.2985 -9.8214 -106.7522
20

F -92.8587 168.5606 -167.6813
O -51.0549 104.1073 -101.4269
F -36.0094 73.1634 -11.5334
C 4.8236 -1.4278 46.0224
H 17.5045 -86.4211 94.8749
C 46.8869 -117.5283 98.1948
F 86.5107 -91.5151 68.7078
C 44.7418 -58.1461 10.2545
F -13.9847 -3.3228 -68.6595
O -104.3675 196.5386 -203.8669
N -79.0323 190.3470 -121.5462
O -2.8432 232.5493 -90.5793
C 49.9924 99.5930 66.2290
O -52.7188 -63.0944 138.1310
O -139.2786 -246.1350 117.3695
O -207.1783 -348.3843 115.4460
O -202.1140 -343.9317 23.9266
F 11.7687 -226.9388 -50.6663
H 214.9405 69.9562 -139.0767
H 504.2715 452.0299 175.8800
21

C 114.8881 150.8897 89.9633
F 72.1136 89.7738 69.1543
H 6.6924 68.2281 73.8240
C -62.4303 31.8952 53.8303
H -93.1299 -20.7111 2.9964
C -92.0082 -85.2294 -81.0528
F -51.5460 -127.0108 -149.4678
C 23.4370 -111.2117 -122.7625
H 89.2909 -60.6731 6.9381
N 144.1485 162.4628 84.3241
N 76.8903 168.3465 110.3035
N 10.7789 167.7233 89.3825
H -57.7473 79.5272 107.0413
O -56.4353 56.1211 152.3154
F -65.3026 10.9615 196.7380
F -50.1577 -20.4397 151.4718
F 20.9272 -64.9207 -39.9441
C 49.8606 -124.8049 -265.8310
F 88.2519 -91.1459 -425.9346
N -206.1059 -215.2658 -397.5580
H 37.5839 -64.5160 294.2678
14

C -0.2606 -1.1842 -1.4151
C -0.1568 -0.9012 -1.3469
C 0.1238 -1.0864 -1.1268
C 0.7076 -0.7225 -0.8010
C -0.4236 -1.2586 0.0256
N 0.4254 0.5527 1.2662
N 1.4377 1.1509 2.2955
O -0.8340 2.6290 3.1235
C -2.6011 4.3513 0.6480
H 0.6009 -0.9240 -0.4460
H -1.0183 1.0751 -0.7496
H -0.3110 0.6833 -1.8485
H 1.3021 -2.9918 -1.3322
H 1.0078 -1.3736 1.7074
21

F 178.6671 58.8182 -99.6042
F 96.8391 25.6050 -57.0742
H 36.9321 19.8332 -35.8966
F -26.4655 6.0744 -19.9396
H -84.3435 -7.2448 9.1419
C -100.6788 -26.5685 52.6935
C -87.5494 -11.5622 28.8521
F -38.5450 -25.7820 62.8364
H -21.3690 -46.1853 97.5044
F 198.6649 63.2214 -107.5134
N 168.9413 79.6376 -109.3169
N 116.8453 75.3660 -102.5905
F 1.6748 -1.6650 -84.8591
C -58.3521 -61.5130 -47.4699
F -109.4553 -88.6861 77.1530
C -118.4087 -37.3452 161.9703
F -63.0849 9.6668 129.1632
C 71.6245 99.1930 51.6329
H 117.4787 128.9363 -67.9278
N -74.0402 -63.2304 -197.8948
H -205.3757 -196.5694 259.1392
17

F 16.5600 -4.5057 -53.9183
N 11.6925 -0.1064 -29.5147
F 2.1379 2.2411 -9.1464
C -0.3124 4.4940 9.1571
H -8.0896 2.9693 26.9978
N -12.1057 5.1144 32.1206
C -8.6136 -0.1591 32.1174
C -11.8230 -5.6512 15.9477
C -1.5842 -6.3916 -0.3248
H 17.9396 -5.7991 -59.6407
H 16.0476 1.3474 -59.4812
H 16.8293 2.2684 -48.8222
F 14.0386 10.1422 -2.4178
H -5.1898 12.0130 23.8888
F -15.7075 -3.8605 39.5320
O -18.6793 -9.1675 49.0811
O -13.1402 -4.9486 34.4236
21

F 165.8670 20.5285 -214.0829
F 85.8467 -26.5982 -115.5460
H 3.5950 -40.4700 -66.8519
N -76.3763 -47.4684 -30.3406
H -120.5980 -37.0053 24.4046
H -107.2817 -62.2986 84.9497
C -41.4966 14.3368 69.7685
O 41.2264 61.9099 136.0807
H 18.8884 101.8646 189.5701
F 226.6538 10.7521 -248.7957
F 181.5808 24.9209 -251.8966
N 95.3882 12.4717 -174.9999
F -62.2863 -65.2671 -93.7336
N -192.4924 -134.6316 -26.5282
C -233.5664 -167.0938 122.9753
N -274.2500 -63.2584 210.9486
H -163.4074 52.6913 112.8534
N 183.2262 227.5918 22.3472
H 421.6547 307.2267 -135.4279
N 248.2449 -104.5666 -147.7183
H -400.4170 -85.6366 532.0236
19

N -66.1886 98.6586 -1.9097
C -39.9324 61.0564 -0.9719
N -28.0470 37.2912 8.7634
C -7.3706 4.0722 13.5501
O 18.1103 -34.1824 9.9209
O 38.7484 -56.3942 -0.7928
F 46.2060 -59.8091 -9.4373
C 40.4836 -45.8401 -13.7761
C 15.3911 -15.9572 -14.3827
N -72.1567 107.4429 -4.2935
F -75.5328 99.2771 4.1909
N -65.6125 88.5189 15.7459
F -33.9145 32.2394 32.4528
N -12.0413 -8.3729 30.5479
O 7.5593 -40.0622 18.4013
F 51.2337 -64.8056 4.4038
F 61.5176 -82.8147 -16.3273
C 67.3354 -72.6689 -33.9341
O 54.2108 -47.6494 -42.1518
17

F 44.6985 -23.5235 -180.3274
N 34.2444 -6.0573 -104.2193
F 10.9337 -6.3493 -29.1330
N 3.0595 8.3584 23.8365
H -22.8912 1.7707 93.2776
H -36.3524 10.9180 119.7853
C -26.1536 14.1857 99.0543
O -28.0943 -5.1989 57.0512
F -3.4972 2.6325 -10.7376
N 45.1752 -16.5556 -194.2731
F 35.6114 -7.1084 -173.5278
C 29.8907 -14.5646 -157.3311
H 36.5753 0.5111 -25.3342
O -2.3558 16.7029 67.2568
O -26.8265 -1.4665 115.7365
O -47.4190 -1.1023 172.6872
O -46.5989 26.8472 126.1983
16

F 10.6094 48.4621 -15.2264
F 6.6897 25.7389 -9.1404
H -2.4025 10.0301 -5.4252
C -4.2432 -5.9155 3.4899
C -6.5164 -27.9012 5.6420
H -3.0715 -34.7471 6.2196
F -4.7598 -27.3243 13.1940
N -4.0900 -16.6849 13.8681
C -1.6066 -1.9844 3.9732
N 2.3863 54.4833 -21.9816
H 7.5717 45.1667 -12.7744
H 6.2974 30.5676 -6.9964
H -0.6639 3.5601 2.9391
H -0.4093 -29.9471 7.5518
O -7.5237 -39.0863 2.8007
C 1.7325 -34.4181 11.8660
20

N 152.4635 -116.3038 112.5239
H 91.9110 -66.6184 75.1999
C 59.8905 -20.5316 66.9972
C 24.3419 36.8112 39.8485
C -15.1447 77.3826 -2.9993
C -73.3689 78.4022 -54.1616
C -123.4680 38.0144 -104.3015
F -107.0797 -1.1249 -102.0222
C -22.4238 -28.9747 -56.4384
H 165.1187 -130.3239 126.4499
N 113.2842 -132.5704 131.7787
F 47.3208 -135.2481 110.8756
H 8.3926 -7.5600 87.0512
N 86.5822 118.5384 72.6525
C 133.0123 207.1101 12.2044
F 178.9784 273.8214 -56.7096
C 141.2248 244.7139 -126.0692
C -56.7780 76.7471 -156.6268
C -237.9643 -109.2118 -111.7719
H -566.2935 -403.0735 -64.4813
21

N -8.0618 -106.7931 -92.4645
C -6.4298 -79.4738 -53.8146
F -17.3593 -56.4312 4.9339
N -18.8949 -35.7496 78.3061
H -9.4628 3.1486 108.3514
H -3.2298 24.7383 78.5305
F 29.3801 56.1252 -0.5569
N 24.3989 89.8365 -64.5474
F 31.4808 138.3345 -84.4502
O -0.1586 -114.6211 -105.1593
F -30.1611 -133.5386 -78.9245
N -58.1887 -147.0766 -84.1905
F -53.8863 -85.0850 29.8307
O -13.6304 -2.5550 175.3073
O 25.8180 71.7794 309.0313
O -0.9683 155.0632 360.8556
O -24.5086 191.1679 239.2784
H -18.9953 76.7225 -27.9755
F 73.5260 -19.3764 -332.3149
H 57.1344 -260.1511 -466.9997
H 22.1976 233.9353 6.9727
12

C -4.6311 4.8175 1.3529
C -2.6576 1.9910 0.7385
C -0.2442 0.2820 0.8058
O 2.5121 -0.9771 1.4027
C 5.7760 -1.1631 -0.1606
O 7.1997 -5.3184 -1.4949
O 4.3083 -4.9551 -2.6682
O 2.4238 -5.7520 -2.3469
O 1.2862 -5.0806 -1.9238
H -5.2164 6.0516 0.6009
H -6.7725 5.0485 2.2384
H -3.9844 5.0556 1.4553
18

C 19.0635 -60.0983 48.5926
O 14.2564 -34.7229 30.5052
H 13.9305 -21.0149 19.9351
N 5.8881 -4.5265 1.9181
F -6.9134 21.9286 -17.7811
C -17.5029 38.9821 -28.4600
N -19.1972 40.0527 -33.6711
C -17.4224 31.5040 -23.5846
O -6.6374 18.9696 -9.2818
H 22.2277 -63.7523 54.6622
F 24.9047 -68.0229 54.4502
H 22.5420 -65.0555 49.4188
C 16.0202 -27.7098 24.0461
O 12.8177 0.6139 10.4340
O -7.1057 24.5815 -19.5340
C -19.5731 50.6498 -50.2986
C -28.8810 65.2284 -62.9523
C -28.4179 52.3926 -48.3989
18

F -61.5028 -24.0545 34.2850
F -36.3322 -14.8332 21.6698
H -25.8964 -10.0323 14.3010
C -3.7522 0.0660 -0.0529
O 23.0495 5.7762 -14.2020
H 41.3604 15.8933 -21.5237
C 41.7169 18.4117 -23.0055
O 35.3081 14.1182 -18.7237
H 11.3544 0.2868 -3.7901
N -63.7697 -27.3191 38.3238
H -70.3856 -25.4660 37.0027
H -63.4835 -24.1598 37.6687
H -28.0533 -9.4497 14.3807
N -5.2856 0.3323 0.7097
N 26.0386 11.6322 -20.5291
O 52.6714 21.3827 -31.5209
N 67.0455 26.4443 -37.7146
C 59.9167 20.9710 -27.2789
13

N -5.0129 1.5729 12.1024
C -2.0996 0.3205 5.7273
C -0.3751 1.8780 2.4578
C 0.4430 -0.8438 -2.9910
C 4.0682 -3.8205 -10.7058
N 4.4564 -1.0270 -15.3403
O -0.5543 -1.6963 -15.3694
C 2.3924 1.3225 -9.4749
C -0.7893 3.0624 -2.5354
H -5.4477 0.0906 15.6905
H -1.5233 0.0600 14.5861
H 4.1021 -1.7182 8.4110
H 0.3401 0.7990 -2.5584
18

C -115.2806 46.8663 -89.7086
O -78.0953 30.9151 -51.3329
C -42.9888 12.1055 -36.7101
N 8.9716 0.8431 -2.5069
C 55.6843 -16.0378 30.6986
N 86.5900 -25.6649 47.4817
O 78.4022 -36.6769 65.3423
F 58.7666 -13.8371 60.8065
H 14.3944 -6.6455 29.6837
H -127.5406 50.3930 -95.2085
F -127.2495 44.9246 -96.3390
N -121.7781 42.7652 -83.0837
C -43.8597 3.5578 -42.5068
C 5.4969 1.3588 6.2512
O 41.5174 -12.1266 34.4677
N 109.2330 -25.7381 70.9908
N 113.3732 -51.3467 76.6164
F 84.3628 -45.6559 75.0575
18

C -7.4451 -7.3541 47.3008
C -1.1648 -1.9183 29.5702
C 7.1112 1.3671 20.1222
C 9.2423 0.6846 4.2318
O 5.5886 2.1090 -15.5519
C -1.0653 4.2628 -28.5216
C -5.0774 1.3722 -33.1285
C -4.1538 -1.1847 -25.2176
O -4.1327 -1.1898 -9.6103
H -9.0850 -9.1713 50.5769
C -3.8126 -6.7929 53.4738
H -7.6300 -7.3759 44.4602
H 9.7846 6.4539 18.4319
O 19.0297 8.2541 8.9843
N 7.7513 -1.2983 -17.0277
H 1.3188 4.7691 -44.8238
H -8.2776 7.0137 -56.5162
C -7.9822 -0.0012 -46.7545
16

F 11.5559 -16.2399 -56.9525
N 3.6560 -6.8885 -33.6754
C -1.6936 -0.1687 -11.5394
O 4.0496 0.5880 12.5126
C -0.2682 1.4650 36.6837
N -4.9271 6.0112 39.0422
F -7.5083 7.3272 24.6031
N -11.7999 3.1994 16.2374
C -3.8082 -2.2982 -3.3234
N 10.1546 -14.1290 -55.4787
H 5.9897 -17.6598 -52.9534
H 5.6239 -13.3305 -38.8191
H 0.2403 2.8968 -6.8348
N -1.8045 13.3797 25.7829
O 0.2360 19.8831 50.4494
H -9.6961 15.9643 54.2655
16

N -10.9433 31.6979 -16.4037
C -6.2661 14.5275 -10.3524
H -6.0553 5.8509 -3.9397
O 0.0177 -7.6590 6.6487
C 4.1206 -15.8433 9.8177
C 8.3846 -20.8364 11.9176
F 6.3973 -14.1513 7.8088
C 1.4857 -14.5881 4.6871
C 2.2935 -4.4879 -3.2903
H -14.4291 32.0942 -25.1257
H -7.8785 35.7437 -13.2425
N -9.4452 21.8779 -11.5644
H 3.2048 -2.0797 4.2384
H 9.0514 -14.2442 10.2314
O 10.9839 -24.7154 12.9031
C 9.0780 -23.1869 15.6659
21

C 212.9845 4.3937 -82.3385
O 127.1045 7.2054 -48.0467
C 82.4635 9.8854 -22.6603
F 29.3024 8.2017 5.9317
C -35.2714 -1.9567 39.7872
C -105.2180 -21.3028 57.0149
C -156.2809 -32.0636 38.0385
F -142.8238 -5.3322 28.1957
H -50.3672 33.2957 2.8945
F 235.9565 -6.4380 -84.3580
C 183.1026 -6.0710 -80.9044
F 95.3204 -22.6955 -76.0010
H 21.5654 26.1622 -34.6717
N 78.5625 60.9601 8.9371
C 109.5637 64.8592 44.4740
O 146.3460 62.5866 66.2471
F 123.8373 20.6993 67.7376
O -47.9227 -54.2868 73.7593
O -223.0824 -90.3559 43.3382
H -585.1802 -210.6542 -38.4228
H -99.9628 152.9078 -8.9523
20

H 12.0092 -136.0113 73.3312
F 8.0636 -79.5545 55.4519
C 8.6681 -36.8345 58.2352
C 23.5118 8.0883 36.4202
C 25.8316 50.8794 -6.2637
C 4.6857 91.1745 -43.9010
H -34.9037 88.7318 -78.4356
F -39.2907 59.6646 -75.2258
C 0.3731 -12.1986 -65.6193
F 9.8348 -154.2779 77.8465
H -13.2464 -144.6600 103.8949
F -41.9398 -108.6473 122.2964
F -5.4295 -9.2146 121.6277
C 42.5819 27.2340 91.2803
C 99.4472 33.9327 -41.5355
F 187.4806 37.1331 -167.9554
H 214.1691 35.7425 -245.9778
N 80.1590 50.2111 -201.8148
H -114.3595 82.5899 -53.9254
F -467.6460 116.0169 240.2701
11

C 1.8661 3.3712 -2.1029
C 0.7109 1.9579 -0.9691
C 0.1887 0.9216 -1.0815
O -0.3175 -0.9349 -0.5692
N -1.6090 -2.5997 3.1005
C -3.1165 -3.0902 2.3540
N -1.8441 -2.4442 1.7305
C -0.0094 -2.9748 0.9858
N 1.4192 -0.8336 -0.1734
H 1.6718 4.3663 -3.4450
H 1.0395 2.2604 0.1703
17

F -3.5042 35.9537 -33.2443
C -0.8747 20.5192 -20.7105
H -3.6467 8.7568 -9.3321
C -3.4003 -3.5970 1.4437
C 1.9442 -16.8675 12.0858
O 4.2346 -23.4932 22.3802
F 3.3803 -20.9274 20.2665
C 2.4418 -14.4581 15.2332
C 2.3234 0.9354 2.3089
F -3.5806 37.9404 -35.8287
H -6.3392 36.1920 -32.5815
H -7.2072 29.0920 -30.0960
H 0.7541 6.5451 0.8474
H 2.0166 -10.3536 11.7424
O 1.2298 -25.7266 22.7143
N 7.2962 -33.0528 29.5767
O 2.9318 -27.4581 23.1940
21

N 127.0434 -59.1383 -167.9734
O 82.6054 -44.3255 -108.0059
F 55.3476 -48.5767 -33.5275
O 27.7950 -42.7961 52.9079
H -24.1327 -7.1747 119.6945
N -67.9691 -4.5499 144.0449
O -68.1953 37.7963 80.3403
N -88.9124 87.9594 -4.0126
H -80.5639 127.2506 -106.4244
O 134.6037 -78.1837 -181.9338
F 138.0158 -81.4995 -160.3199
H 108.5167 -103.5756 -120.8820
H 49.7722 -54.2530 3.5065
O 20.8705 -23.6549 122.9885
O -20.9029 1.5662 193.9174
O -79.4610 37.3356 205.3358
O -118.2285 56.0271 169.1471
F -86.2074 21.0327 92.8783
F -1.9856 22.5793 -60.8462
C 16.6224 -57.6134 -64.8136
C -124.6337 213.7941 -176.0221
16

O 18.4692 -18.8624 -64.1496
N 6.4664 -9.1973 -37.0764
C -0.9817 -1.8880 -10.6050
C 5.2051 -3.8992 16.3354
C -4.8324 3.9338 41.9283
N -11.6136 12.1477 42.1698
F -11.8363 13.3036 26.9764
N -14.7158 3.1959 17.7614
C -1.3640 -6.5464 -1.1712
N 17.7368 -14.9034 -59.9640
H 12.0693 -16.4326 -60.5764
H 7.2768 -10.4878 -44.7626
H 2.9977 -0.3998 -3.8373
N 0.7727 15.6266 28.7822
O -6.3897 20.4602 54.3072
H -19.2605 13.9490 53.8817
17

N 2.1151 -87.9102 -64.4966
O -1.9097 -43.7579 -38.9689
C -4.2173 -20.1342 -22.5225
H 7.6395 18.7967 2.8325
C 4.3042 37.6339 39.3256
O 9.5629 42.0313 55.0115
N 3.8404 49.4540 40.9133
F -7.6311 33.8982 12.5509
H 0.8481 8.3451 -10.1848
O 1.4836 -93.4753 -62.3948
N -14.9114 -81.8060 -61.2848
H -12.0848 -81.2872 -63.0757
H 4.6209 -6.4441 -10.7887
O 8.3221 12.4295 26.5253
N 4.9046 57.9676 57.6915
O 1.8848 76.2976 51.6742
N -8.7717 77.9608 47.1918
13

N -6.2393 9.9450 -7.9876
C -2.5491 5.4699 -3.7539
C 0.5829 1.9399 -1.3670
O 3.6078 -1.5412 6.0393
C 7.3755 -5.7272 7.7629
C 4.7855 -8.3181 8.0868
N 2.2220 -6.9038 3.8272
C 0.2437 -8.9345 1.6539
H 0.1239 -7.9148 -2.4021
H -10.0225 12.4329 -7.7571
H -5.3153 8.8973 -6.8687
H -1.8095 4.0968 -0.5776
H 6.9945 -3.4422 3.3440
19

C 80.7802 17.9828 -47.8706
N 51.2153 14.1148 -29.4222
F 25.2280 12.3390 -0.3627
H 5.2155 7.9235 12.4656
H -32.8686 -5.3686 33.4932
N -54.2369 -16.6059 33.8269
F -42.0791 -15.4017 14.1840
C -34.1352 -13.7636 -3.3761
H -7.4022 0.0661 -25.7473
N 86.1899 19.0173 -51.0385
C 86.4413 29.3388 -43.8434
C 76.7734 30.8245 -26.7317
O 30.0516 23.8100 15.4716
N -3.4990 4.8588 42.9739
O -43.3797 -21.2892 67.5820
N -76.8081 -27.7859 60.8886
O -76.8478 -31.7700 19.8998
C -55.1455 -25.0432 -8.4549
H -15.4930 -3.2474 -63.9381
18

F -59.7352 -58.2850 -20.7508
O -36.7832 -33.1246 -6.9065
C -21.6254 -17.6143 0.0806
C 3.8476 5.8484 5.4835
C 25.7890 27.4106 11.9082
O 43.1795 38.7405 7.8142
F 41.8953 33.5515 -0.5107
O 29.0861 17.9402 -2.2826
H 2.6524 -4.1904 -3.6630
O -67.5151 -61.0376 -21.4830
F -74.4152 -58.9350 -15.8124
O -67.6847 -45.9127 -14.0819
N -20.8902 -7.4205 9.6744
O -0.5415 16.8051 20.7405
N 28.4137 31.5261 14.5462
O 47.9283 41.6244 15.0612
N 67.8223 41.3334 3.5474
H 58.5763 31.7400 -3.3654
21

F -171.0404 87.2918 -182.2737
C -120.6643 53.4098 -91.4981
F -44.6074 73.4954 -27.2460
O 2.9221 52.3363 42.9802
H 85.8258 5.0132 103.8272
O 93.0099 -30.5418 99.3357
F 72.8312 -89.0738 39.4907
F 59.0118 -115.0717 -10.2817
C 30.5199 -93.6377 -81.5181
O -214.6765 101.6562 -192.2955
F -196.0580 113.5289 -118.2247
H -162.6423 147.0678 -65.8663
H 15.2722 190.7018 127.6864
O 38.2595 141.7117 232.9971
O 77.7512 15.2302 176.4877
O 100.3371 -140.7988 57.3954
N 105.5350 -236.1602 -119.4035
H 54.7027 -294.6988 -223.2741
F 9.1050 -189.4676 -212.2513
H -25.4558 174.2484 286.5955
H 190.0613 33.7589 157.3372
19

C -8.1540 -103.7062 -260.9126
F -0.4118 -66.1678 -169.5989
N 5.5330 -45.4304 -142.0580
O 20.0760 -12.8763 -65.5325
O 11.7624 24.2065 42.4836
F 2.3370 53.4869 147.6576
N -8.0814 72.6444 217.7821
C -23.0737 65.6191 209.5904
H -22.0543 34.8416 124.4409
F -7.1333 -118.2603 -274.9205
N -5.6801 -111.9681 -299.5851
N -7.8555 -105.9431 -293.2496
F 15.3275 -57.8146 -222.0926
C 40.9227 -30.5424 -147.0602
N 49.5452 20.6009 -12.4737
H 27.1302 74.0131 157.0289
N -2.0997 109.7382 301.9772
O -41.6592 115.8378 376.1703
O -46.4311 81.7206 310.3527
14

C -1.6994 -4.2668 5.6950
C -0.4243 -2.4644 2.3873
C -0.4174 -0.3356 -1.0712
O 0.2977 1.4192 -3.9903
C 1.5855 1.8059 -4.4732
C 0.6242 3.4610 -3.3735
O 0.3557 3.3725 -0.6779
C 1.4684 1.2009 1.0678
H 2.0657 -2.2357 3.7712
H -1.2438 -4.6014 5.4883
H -2.2050 -3.5889 5.7013
H 1.5596 -2.5811 1.0246
H -0.8239 3.9636 -5.2955
H -1.1432 4.8508 -6.2539
17

F -18.9464 20.4307 -65.0689
C -9.0582 12.4972 -40.1751
H -2.5687 8.2278 -15.0719
N 4.1623 -0.0122 14.7314
C 10.1188 -9.7380 33.3737
C 8.8147 -10.8992 42.2808
C 4.3395 -10.5003 32.2300
C -2.1836 -15.2150 20.6160
C -4.3552 -5.8894 -2.8825
H -14.8029 20.3423 -72.2637
C -15.5922 26.0891 -65.9901
N -11.8457 14.9919 -53.3656
H 10.5959 5.9840 2.8943
H 6.4994 -0.8395 31.7977
F 7.5660 -16.1795 46.5572
O 18.4872 -21.1939 51.5589
C 8.7693 -18.0960 38.7778
24

C 5.6891 -293.4504 150.3386
C 25.8226 -136.8815 105.6220
N -35.2496 -21.4433 156.4065
F -243.8559 -59.7135 -261.0622
F -150.1292 -83.8166 -346.0250
F -164.9514 -388.8138 -178.6312
C -64.3703 -63.5109 30.3738
C 145.7086 355.4409 316.2806
C 168.3414 601.2616 510.4181
F 31.4460 -123.3985 -13.0768
N 29.0895 -137.9608 -321.1766
H 33.5994 5.9202 -171.7383
F -101.0338 329.4870 -77.5389
C 56.5280 -396.1571 -25.3823
O 287.6996 292.0740 -33.0124
O 477.1222 281.9590 170.7429
O 355.6891 129.8601 -290.7340
H -480.2770 -237.2764 331.2828
C 155.9396 298.1171 877.3637
O -246.2899 -520.2873 -159.6561
O 540.9421 63.3704 -36.6967
H -290.1893 -27.6960 -284.8089
C -591.6419 58.3878 -348.2159
O 54.3710 74.5281 -101.0738
18

H 210.8150 -83.8200 -3.8099
O 128.3044 -51.3212 -8.7046
C 87.9494 -27.7747 -13.7147
N 8.9463 -1.5746 -8.8288
F -77.1134 27.6296 -7.9616
H -129.6177 38.0687 0.1124
O -154.8018 42.7982 0.4832
F -137.9453 44.3868 6.5139
H -33.0581 14.5961 12.3331
F 245.1934 -79.5399 -13.7484
N 235.3375 -74.5472 -19.9890
H 225.8125 -58.3735 -1.8430
H 86.2404 -23.3009 -24.1923
O 8.4345 16.7201 -7.4619
H -80.0143 23.8929 18.2397
O -176.7360 31.2749 34.7715
F -227.6551 80.9698 17.2466
N -220.0919 79.9148 20.5537
25

F 173.4294 -324.6974 51.7033
F 163.4318 -243.8972 69.7896
C 33.0123 -73.0932 107.4229
O -8.9564 -23.0171 -184.6232
C 74.3064 -88.5235 -136.1967
H 18.6042 -51.3900 -6.2586
N -30.3805 47.0019 52.7495
C -232.0986 189.8835 87.7217
C -109.3859 326.0199 369.9247
N 295.7899 -249.6242 19.5822
H 0.2591 -116.1807 -337.8322
N -13.8346 61.7873 -418.5421
N -526.2205 408.6179 -89.2380
F -530.0279 2.7441 -203.6251
O 296.7745 -440.7819 -506.5963
F 188.2793 -128.9267 109.6051
N 308.0303 -101.9693 118.9435
O -375.8262 -93.5673 259.9964
N -341.0697 238.6758 131.0700
C 27.6408 -445.5719 312.0395
F -725.2733 130.8918 -461.3897
H 144.2281 264.1191 95.1155
H 1028.2043 381.9513 270.5807
F 366.0016 -21.6794 -82.7194
F -224.9186 351.2271 370.7767
11

O 4.3937 1.6689 0.6208
C 1.7956 1.7967 0.5581
C 1.5815 0.8844 0.1743
C -0.9456 -0.5135 -1.2677
C -2.9646 -0.7890 -0.4563
C -4.6750 -3.6843 -1.7601
O -5.1902 -3.5895 -1.3053
C -4.4821 -1.7908 0.0209
H -0.6810 0.0978 2.1269
H 7.1743 3.5990 1.3315
H 3.9933 2.3202 -0.0431
18

F 23.7296 93.3781 143.2653
C 18.7738 63.5255 77.1214
F 6.0911 49.8862 39.7938
F -1.8582 11.4490 -9.0322
N -10.5176 -33.5775 -53.8498
H -19.6820 -68.0530 -84.9400
F -20.9897 -72.5704 -86.7549
N -17.0024 -56.7342 -61.6727
N -17.0133 -23.1016 -6.7210
C 31.2637 110.0378 159.0547
C 37.9752 105.9573 139.5769
C 33.5190 101.1404 121.0651
H 17.3986 64.3301 44.5489
O 2.6720 11.9809 -7.2991
N -27.1159 -46.6694 -67.1661
C -20.5725 -100.1197 -119.8710
O -32.5059 -101.5895 -123.8778
H -4.1655 -109.2702 -103.2415
16

F -16.8375 -5.1128 -35.6695
C -11.3786 -0.7520 -21.3792
C -4.0857 -0.5442 -7.5781
N 4.9285 -2.8172 9.5737
N 8.5536 -1.3581 24.1954
N 10.2413 2.9364 26.2808
O 8.0760 4.5352 16.9600
C 4.2551 2.6297 8.5768
C 0.6732 -2.7466 -2.4830
O -16.8765 -4.3343 -37.9299
H -11.9815 -6.9580 -40.8666
H -10.6545 -2.5935 -29.9079
H -1.0562 -0.2698 -1.8426
O 8.8979 4.4254 22.1075
N 15.8364 5.3837 34.1040
O 11.4085 7.5762 35.8585
20

F -220.2774 31.6699 -186.6302
N -131.0079 23.8931 -120.8762
F -95.8787 5.0830 -44.7912
N -20.4688 -22.9541 20.9081
H 44.7120 -46.5071 91.4542
C 120.7566 -22.8620 125.7500
F 172.5307 9.0903 98.6674
C 130.4173 23.0709 41.7704
F 58.3097 15.1766 -38.6836
O -235.5938 47.9001 -217.9328
N -205.6173 47.8938 -188.1037
O -159.0336 83.3920 -145.8941
F -70.9560 2.3499 2.3756
O -92.6072 -106.8839 105.0929
O -88.0916 -176.3037 152.4342
N -48.3228 -235.8220 191.7418
O 34.4109 -216.9210 140.4675
N 197.0673 -64.1267 50.4623
H 282.4268 152.9109 -96.7169
H 327.2239 449.9501 18.5043
17

C 61.5785 24.4119 -23.3005
H 36.7795 12.7169 -11.7878
C 15.2632 6.1737 -2.4092
F -7.5056 -3.2015 -0.5536
F -33.1291 -11.0595 7.0462
N -46.7398 -9.7572 14.5667
C -37.4094 -7.8581 11.3316
F -23.8245 -8.9534 6.1959
H 8.7552 -1.0979 4.6044
F 67.5766 24.1123 -22.2697
F 67.1202 25.5580 -23.1262
N 51.9266 16.7115 -16.8496
H 16.0054 5.2108 -4.4613
C -16.7742 -2.5820 6.3648
C -46.8611 -21.5764 17.7035
C -60.5040 -27.9718 20.8766
F -52.2577 -20.8374 16.0682
22

F 14.4995 -248.2332 -101.4101
F 40.1766 -99.9245 -37.4125
N 26.4236 60.7141 26.8795
O -48.7241 106.9753 9.9406
H -30.3153 84.7854 110.6464
O -26.9984 -3.8408 122.1542
N 24.9969 -84.9687 70.4918
C -10.4383 -11.7546 -32.6867
C -99.6942 22.3606 -15.1522
C 6.6601 -264.9654 -175.9402
F -31.4553 -130.2704 -228.8229
F 26.5950 15.2155 -179.7141
F -54.7492 311.3814 17.4253
N -150.7842 95.5637 240.7182
O 135.6268 20.8180 186.4215
F 154.4470 177.7615 274.8138
C 139.6600 152.3173 67.9097
H -157.6294 33.2710 161.8832
O -216.9176 198.9740 178.0535
C -254.6705 -142.4459 81.0181
H -108.2757 -142.6279 -508.2772
H 621.5667 -151.1063 -268.9399
12

N -5.3487 3.6041 6.9501
C -3.8112 2.9854 4.0281
O -0.3669 2.2368 1.7081
C 2.1974 0.9084 1.0075
C 5.2022 -1.8750 -4.0003
O 4.9557 -5.0059 -6.9497
O 4.7392 -6.6283 -7.7451
C 1.5069 -6.3490 -7.3301
C -2.4524 -2.0489 -1.2581
H -3.1381 3.7588 6.8202
H -1.9872 4.3482 4.5396
H -1.4969 4.0653 2.2297
23

C -320.0872 -316.9211 91.5919
C -46.0428 -127.3971 257.0136
N 160.5311 -26.4856 282.3427
F 42.8240 51.8984 409.1808
C 76.5596 -159.4037 86.6101
C -117.4091 -608.0787 -132.7296
N -90.7846 -225.0136 -301.5002
C 357.3127 340.3230 -176.7818
H -144.1824 562.1526 188.0109
O -254.6602 -253.2331 -237.1956
N -302.1855 -80.7058 -329.7513
H -244.8008 410.2668 -120.3627
H 623.7715 685.0875 127.8430
O 681.6906 -204.8536 518.6100
F 702.8372 -530.4234 25.9288
N -160.7413 357.7971 -42.4271
H -477.8198 138.4046 -846.5494
C -671.7701 -96.7670 -55.6036
H 1126.2250 587.9133 74.2815
F 77.4336 -190.2774 -157.0322
O -733.9692 -271.6666 560.4128
H 162.8087 -179.0286 215.0080
F -447.5407 136.4119 -436.9003
20

H 48.3034 44.7271 -126.4791
C 25.9070 34.3496 -83.7091
C 20.4482 45.4038 -69.4519
N 19.6582 21.1027 -50.2227
F -17.3362 -6.7547 -14.7863
C -26.4648 -34.8181 61.1317
C -35.4631 -41.8298 126.6664
C -33.0676 -41.2919 133.9487
C -16.3560 -25.2794 64.1130
H 41.1019 47.1284 -137.2080
H 47.9542 55.9105 -132.6452
N 52.0294 64.3431 -108.0711
H 42.2906 61.8266 -80.2876
C 5.5849 26.1272 -109.1967
C -33.7795 -33.3091 -121.6356
N -39.3387 -86.9778 -119.8054
F -53.6090 -106.2464 -27.1825
C -27.3333 -79.9803 159.1322
H -20.6756 -34.4363 278.3853
H 0.1459 90.0048 357.3039
21

F -23.3503 180.9668 -65.8862
C -34.5818 101.4398 -5.8001
H -87.7287 56.1300 34.7270
N -83.0915 13.0638 101.2930
O -59.4108 -57.2492 131.1158
C 5.3838 -102.3988 160.0973
F 78.0501 -87.3637 -6.0633
F 131.2883 -83.2311 -145.3378
H 65.4489 -49.9993 -239.2957
F -5.9849 201.4092 -62.6783
F -38.9021 180.9736 -25.5520
N -84.3940 176.3825 -2.3165
H -155.6330 30.6525 32.4124
C -196.9496 -128.8297 120.5134
F -140.4796 -221.0902 204.6610
C -1.0255 -164.8947 296.7972
H 191.2165 -79.6321 247.0083
N 444.8060 65.0573 262.7922
H 445.4742 210.4203 -83.1032
N -86.1732 -13.5034 -397.7434
H -363.9627 -228.3036 -557.6409
13

C 1.9757 1.9043 2.7752
C 0.8520 0.8569 1.4732
C 0.3380 -0.4447 0.3445
C -0.5529 -0.5744 -0.2425
C -0.7343 -1.7948 -3.0395
C -1.4816 -1.4138 -4.8481
N -1.4219 -0.4750 -3.8779
O -1.5805 -1.2726 -2.6490
H -0.7156 -1.5548 -1.0495
H 2.1209 0.6988 2.9878
H 2.6937 1.2920 3.5860
H 1.1079 3.3849 3.2782
H -2.6014 -0.6067 1.2617
19

O -112.0998 31.1110 -13.1825
F -70.1151 18.4530 -4.2290
H -60.6013 6.8112 -0.1828
F -29.9114 -3.5279 7.6955
H 15.9659 -14.4268 8.5473
N 60.7168 -15.7948 5.3213
F 91.9537 -10.2794 0.7470
C 94.0685 -10.8982 -6.4889
C 57.7317 -2.6305 -8.3577
N -121.4602 34.4036 -13.5218
F -135.1103 25.6491 -7.3451
N -129.0455 23.4083 0.5092
H -88.6555 -4.4021 13.9869
O -59.8174 -14.5894 18.9458
F -12.1585 -21.7988 18.3317
F 64.1605 -18.8220 16.3958
N 123.2392 -15.1404 -4.4559
N 163.8918 -9.5575 -11.1560
O 147.2469 2.0315 -21.5611
21

F -55.4130 75.1734 -48.4308
C -53.4151 47.7204 9.6150
H -120.1533 -8.4575 40.3519
F -147.0815 -38.9387 24.2063
F -130.7438 -76.2260 7.3196
N -22.0414 -96.0159 70.4336
F 90.1651 -29.3734 -47.5485
F 236.3891 66.2409 -37.7223
H 253.9312 116.6093 -99.0959
F -43.9547 47.3488 -34.4466
F -114.8086 46.5056 33.7776
N -192.0430 52.4882 122.7605
H -255.2952 10.0218 149.2958
C -294.9979 -143.3338 39.9126
C -238.0583 -288.2718 -82.7151
N -65.5754 -252.8156 -283.0018
N 188.3503 -106.4857 -335.7331
N 448.6606 83.4422 -69.0369
H 488.6104 303.8336 104.4056
O -37.8468 89.7369 546.9381
H 65.3214 100.7973 -111.2855
21

N 81.5781 -158.8030 -14.4980
F 47.4399 -112.0351 -11.7014
N 25.4043 -114.6055 -28.7371
F 6.8149 -101.1862 -30.7927
C 2.0281 -27.6091 -35.4894
N -13.2964 57.3190 -30.4075
F -26.0701 131.0525 3.2772
F -63.8263 209.9203 61.0021
C -111.7463 218.3765 123.4214
F 109.3388 -179.6282 -20.2959
H 99.4785 -209.8683 -18.8058
H 69.6719 -253.1777 -45.8211
F 21.1966 -217.5478 -79.5841
F 17.8425 -141.6205 -82.6638
F 3.1577 -12.4082 -9.2489
F -77.5446 145.1500 63.2669
N -128.5543 275.7554 89.1167
C -54.0064 261.1369 10.8298
F 58.9056 168.2833 -28.6017
H 204.5046 -196.8588 -193.5822
C -272.3171 258.3545 279.3156
19

O 171.6779 126.0584 -10.9704
C 112.1134 82.8050 -9.8635
F 105.1494 64.7324 4.9808
N 59.6411 5.0381 28.7390
C -16.9598 -34.2679 28.5920
C -95.9696 -83.2615 20.3337
C -146.8240 -95.0071 -6.3733
C -167.2069 -71.4519 -30.4753
C -113.5392 -19.2690 -41.8063
O 200.1100 140.2004 -19.4270
F 221.9158 147.9945 -6.5414
N 214.6400 129.1632 4.7288
N 156.0662 70.8286 36.6010
O 122.6926 18.7256 66.3171
N 9.8821 -43.3192 71.7651
O -104.2697 -93.9626 43.4601
C -236.5515 -128.5354 -8.7403
F -272.9412 -129.8361 -55.3380
N -219.6269 -86.6355 -115.9821
21

F 159.8400 -12.0332 238.0029
C 82.3154 -22.0077 140.7992
F 12.0783 -49.9078 100.7402
F -67.8365 -95.5609 20.7150
F -135.6568 -75.7147 -32.7851
N -116.6147 -25.8854 -81.7181
F -48.9441 51.2801 -162.6530
F 22.6430 157.6650 -196.3090
H 52.0715 207.1875 -145.4156
C 170.3130 -50.4869 279.7490
F 173.9694 -65.4881 263.2396
N 141.4215 -93.1424 230.4022
F -46.8234 -122.4532 68.3794
F -152.4906 -202.9966 39.2368
N -236.2849 -197.2430 20.6786
C -259.2830 -121.2860 8.6435
N -212.4670 53.9209 22.0876
H 0.3421 172.4608 -2.4444
F 182.8795 246.5975 -140.7394
F 301.3518 27.0347 -355.6230
F -22.8245 218.0593 -314.9863
20

O 141.3732 -10.0611 16.2040
F 93.8814 -12.7673 6.5698
C 86.4353 -10.0193 -2.4046
N 34.1600 -14.2708 -1.9163
F -36.8305 -9.1627 -3.4272
N -81.6575 5.4650 -3.3151
O -103.7229 6.9906 -6.7708
F -116.7410 19.9473 -19.3612
C -93.4010 29.0387 -1.4284
F 160.8094 0.6071 15.5260
N 197.2076 1.5716 7.0136
N 227.9675 -8.8072 -8.7746
C 152.3290 -12.8409 -21.8256
C 69.7038 -35.1380 18.3060
F -55.9175 -36.3460 60.5024
C -230.5448 -21.5023 100.6885
F -351.5181 7.7136 78.1522
O -289.1174 17.6656 16.0509
F -118.3080 39.4371 -90.8868
N 313.8915 42.4789 -158.9029
16

O 1.2251 -36.2658 -52.4384
O -3.5152 -18.4766 -28.3440
C 0.6510 -5.3233 -6.1993
N 7.9082 6.2485 7.8119
C 2.9242 19.5978 21.6754
C 4.5099 20.9359 22.3630
F -0.5098 15.0579 20.0288
F -10.9768 5.9405 15.8625
H -9.1615 0.6950 -0.3755
N -4.0069 -31.6952 -40.3788
F -6.8195 -26.5050 -30.9556
H -12.5867 -18.3059 -20.3411
H -4.5628 5.9568 6.4218
O 13.6177 13.7923 23.4941
N 16.6001 22.2666 31.0164
O 4.7028 26.0805 30.3587
23

H -227.1610 -115.2191 4.5816
C -140.5146 -185.5007 -158.8758
H -42.3093 -187.5133 -349.6729
C -4.1200 18.9260 -333.1955
O -77.9059 216.8527 -160.5510
H 54.9616 304.8085 160.5767
N -61.1899 246.3535 352.3287
C -104.4254 227.7713 194.4730
C -78.1768 -81.5191 140.9862
N -275.5839 -105.3921 206.4756
N 194.3179 -338.5683 -168.4722
N 347.8159 -503.5035 -556.6831
N 208.8581 65.5637 -555.9308
H 21.8263 225.6231 -95.8242
N -251.1939 228.0876 163.8350
N 39.7935 -390.8744 -114.5247
O 252.1757 266.8881 -351.6748
N 267.4321 897.0427 181.6631
O -324.6994 -57.8334 1170.9563
O -445.5414 4.6853 610.8073
H 307.8256 -36.3479 21.8908
H -179.1840 -57.3106 -187.7117
H 516.9989 -643.0200 -175.4576
19

F -75.6191 -102.0335 -141.4072
N -48.2740 -66.0384 -85.8740
F -45.9809 -31.1465 -4.6652
O 13.6033 8.3484 57.6931
H 31.4601 37.1196 117.3139
H 40.3673 80.8311 109.0676
F 67.8922 73.6220 39.0227
O 43.8349 33.8970 -27.2158
F 43.5649 8.4320 -118.3870
O -84.8427 -110.1901 -160.6772
N -92.6638 -124.3544 -123.9225
C -93.5165 -104.3486 -85.2623
F -46.2318 -10.1829 73.2555
O -30.6769 -2.0449 203.2986
O 5.4773 48.8634 217.1350
O 25.8802 82.7297 197.5334
O 59.4126 92.2623 50.1178
F 92.4857 50.2252 -75.2292
F 93.8272 34.0087 -241.7972
15

O -14.4449 -10.5423 -4.1709
C -7.3384 -6.6417 -2.6404
C -1.1683 -0.2626 -1.5206
C 5.4016 3.4903 1.0284
C 8.9558 5.1667 2.9429
N 9.0108 4.6386 2.8170
C 6.2241 5.9563 2.6645
C 5.0019 3.8969 -1.5815
H 0.8302 -4.7097 -4.8897
H -17.8817 -9.7783 -1.2931
F -13.8093 -7.7050 -1.3381
H -10.5345 -6.2979 1.9310
H 2.1444 3.0017 1.3085
H 14.3817 9.6701 3.9859
H 13.2266 10.1167 0.7562
16

N 6.7560 -64.0101 30.9260
N 2.8766 -37.8311 12.4419
C -7.3419 -22.2169 -4.6122
C -0.6352 9.0242 1.7990
C -3.1709 30.7406 -10.7746
O -2.6030 43.7592 -18.4562
F -15.7958 50.4922 -17.4711
C -14.8295 35.7842 -14.6561
C -10.5662 -1.2094 -2.3283
N 3.9268 -69.9311 33.5353
F 8.1849 -54.4634 40.4587
H 6.5879 -57.2325 27.4364
H -2.2726 1.0129 -3.3133
H 5.4495 36.8126 -18.5427
O -0.7197 51.1793 -28.5052
N 24.1532 48.0893 -27.9376
16

O 24.9964 13.0852 25.9129
F 15.1618 7.4469 11.6119
C 8.7656 4.8556 6.7067
N -7.0695 -4.0856 -6.2411
F -17.0185 -9.7562 -18.0334
N -15.5957 -8.7118 -25.0142
N -18.9448 -9.1704 -20.3228
C -8.9977 -1.6236 -8.9056
N 3.8499 -0.9104 4.0623
F 24.7516 13.5906 32.8695
H 29.6014 12.0883 30.3697
H 21.0645 16.4444 25.4461
H 1.3397 3.0725 -1.6345
H -16.5579 -7.0642 -8.2228
H -23.4055 -11.6029 -21.3147
N -21.9414 -17.6582 -27.2899
16

O -64.8027 -63.6148 -77.4048
F -42.4322 -29.1523 -34.5358
C -10.4583 -5.8439 -4.9100
N 15.1278 13.3829 21.2972
F 30.9711 33.0707 32.7148
N 45.6530 33.2207 28.6525
O 37.2418 24.7493 19.1118
F 19.8099 14.8662 15.4400
H -3.2375 -10.0391 13.8693
O -87.3773 -59.8009 -58.3459
F -65.9690 -59.2834 -55.9894
H -60.2747 -55.5971 -36.0324
H 8.7622 9.7240 6.5772
O 63.3410 44.5054 47.8889
N 71.4800 61.0876 38.9748
O 42.1648 48.7247 42.6917
19

F 40.5853 -113.2080 19.3986
H 36.8878 -67.9326 -0.5679
O 26.2911 -53.7384 -39.7750
C 14.9504 -18.4413 -51.7287
H -5.1246 15.3371 -64.3385
H -22.3240 67.9928 -6.9405
F -32.4555 80.1739 38.9055
F -52.6000 80.8463 69.1468
C -40.7397 41.0052 87.0903
H 50.4562 -131.5410 26.8344
C 60.2683 -123.2821 -9.0711
O 57.1812 -123.2801 -33.5838
H 37.2777 -59.8854 -104.1872
N 40.6146 -34.5770 -133.5558
O 13.7979 8.9260 -136.6511
H -9.9347 67.5744 -65.6379
O -52.8118 127.4747 43.1520
N -75.3965 145.4823 151.4490
N -86.9235 91.0732 210.0610
15

N 0.4956 15.1158 -12.7667
C 2.1152 7.5191 -6.1038
H -0.7426 1.6258 -1.0375
C -1.3186 -3.5986 4.8258
C -1.2883 -9.5762 9.0126
H 0.0122 -10.4539 8.5715
N -1.5196 -7.5859 3.3628
C -0.9823 -5.2053 3.2414
N 0.1787 0.5901 -4.5413
N -1.1472 16.9847 -15.5716
H 0.4914 14.4875 -11.9233
H 3.1827 9.2198 -5.7791
H 5.0325 -4.5681 8.2624
H 0.9343 -12.6427 10.8986
H -5.4439 -11.9120 9.5482
17

F 76.6660 -50.7614 196.0253
C 38.3974 -26.3142 109.6286
O 24.3047 4.3567 55.7249
C 5.2121 3.9135 -21.6408
N -31.8965 5.8780 -120.1568
C -34.4348 29.4278 -132.2780
C -72.1397 4.1508 -118.1350
F -62.8192 24.0343 -78.5024
C -18.0585 23.0999 8.5904
H 72.4883 -51.6204 225.4849
C 76.5570 -35.9351 196.5188
H 68.2461 -25.4788 175.1141
F 30.5840 -17.0640 42.5957
O -10.2842 11.2876 -67.6570
O -35.3319 15.2430 -127.8336
O -35.7317 40.7359 -183.1789
C -91.7590 45.0463 -160.3003
22

C -163.7605 -239.2153 -107.7319
C -89.7507 -123.3391 -76.7662
C 0.3148 -30.1642 -50.1973
C 73.9167 71.3604 20.5976
O 99.7805 122.9958 124.6590
H 46.3746 162.7678 173.9731
F 12.4391 98.0370 83.7304
O 11.1108 58.4573 -89.5252
C 23.5074 51.7399 -189.1413
C -186.9188 -332.3596 -94.9291
N -136.0852 -378.5206 -92.7338
H -79.1573 -399.8085 -82.0947
F 114.5624 129.4437 44.0867
O 30.1710 330.9684 213.9385
F -49.4355 235.4413 119.1506
F -85.5744 52.4695 10.6632
C -14.1580 -25.9119 -72.6525
H -15.9840 -30.7054 55.1190
C -119.4682 -150.8344 291.4763
O -134.3761 341.3063 549.2820
C 455.0852 336.8221 -250.3711
C 207.4064 -280.9504 -580.5332
13

N -5.2049 4.4313 0.6944
C -2.3649 2.1947 0.0854
C 1.0289 0.1821 -0.4857
C 3.9524 -0.4919 -0.9529
C 4.3513 -1.4956 -0.3089
O 4.0901 -3.6670 -0.6930
N 2.0380 -3.2227 -2.0313
C -0.0499 -4.1722 -0.8814
O -0.3017 -4.4992 -3.3021
H -5.6678 4.8081 -0.3383
H -3.8778 3.2471 2.1554
H -0.8693 3.8293 3.2324
H 2.8756 -1.1442 2.8258
19

O 248.9269 -40.5432 -36.6966
F 153.0815 -25.2819 -30.8480
F 103.5807 -18.5563 -33.3501
F 23.2257 -9.1911 -27.4482
F -70.9187 8.4781 -1.9446
C -147.8100 14.9315 28.6105
F -176.5519 23.8542 42.5772
F -154.9988 37.0810 47.5651
N -65.0565 28.4552 32.4648
C 274.0654 -46.1707 -40.9282
F 274.5606 -40.8035 -54.0524
F 248.1191 -40.7471 -56.3832
F 127.8171 -14.3256 -64.6297
C 53.9053 -25.1223 -50.2028
N -54.6618 -13.2571 -13.4008
O -164.0774 10.3036 32.3089
H -244.4517 40.4147 68.0903
H -251.7546 56.5481 87.8830
H -177.0009 53.9322 70.3847
17

O -85.1989 -61.8208 25.6094
F -44.7390 -38.8177 25.1293
H -23.4814 -27.7913 19.8614
C 13.0876 2.6930 -4.7812
F 32.0433 20.9647 -12.7236
O 53.7198 54.3065 -19.3933
N 45.8834 47.7776 -25.8846
C 31.1324 32.8930 -14.9748
H 3.9949 3.1187 -11.8932
H -92.4134 -64.5326 31.6711
F -81.5132 -76.6323 23.3424
C -71.5569 -85.2893 29.6349
H -0.7246 -3.0171 -7.4414
C 37.9184 26.3852 -9.4344
O 59.1467 51.5814 -15.7329
C 66.1358 55.0884 -11.0134
O 56.5651 63.0925 -21.9757
18

F -33.8588 -78.8712 21.8146
F -18.1294 -47.9490 13.0841
H -9.4184 -33.3160 11.1540
H 1.7396 -3.6001 2.4021
O 15.2850 26.6613 -7.2373
H 21.9753 52.4530 -11.0550
F 21.0806 57.5350 -15.3072
C 11.4746 42.4759 -11.9858
N -1.2172 8.6528 -3.2936
C -39.4734 -83.6295 21.1149
N -41.0524 -86.8090 22.3686
H -31.7808 -76.7769 22.5560
N -8.2569 -32.3406 11.9194
C 5.5082 -2.4150 3.4700
N 17.6773 38.7460 -16.8382
C 33.7753 67.7901 -23.1758
C 31.8727 80.7577 -28.4066
C 22.7987 70.6356 -12.5841
21

N 133.0669 -170.6902 -159.1448
H 73.9545 -108.5200 -95.2527
F 75.0228 -64.8111 -55.7121
O 62.9421 -26.5657 19.7464
C 14.4812 24.2947 92.6982
O -61.5351 75.8684 122.7602
C -127.0983 110.8792 101.4109
O -150.7288 122.0010 42.3228
H -92.3107 87.1493 -40.0770
O 133.9216 -186.1026 -159.4511
F 135.5263 -174.7984 -164.8892
C 116.8391 -138.4286 -167.3278
H 118.3917 -12.8990 -87.4383
O 138.5296 -1.4127 42.7101
O 108.6916 11.2407 145.1388
N 51.3921 -69.0184 216.6979
N -30.5122 -104.2035 231.3474
H -160.6111 -42.6729 171.8604
F -255.6414 87.6045 11.6593
O -302.5062 338.5714 -165.0169
H 18.1841 242.5143 -104.0427
19

F 122.8654 19.1466 -20.7988
C 74.4476 16.9110 -9.6725
F 65.6477 22.8406 9.7286
O 38.2908 15.6174 17.1119
H -13.7830 1.4099 28.6076
H -70.8335 -8.2937 14.9620
F -100.0644 -26.5712 -10.5208
N -100.4821 -32.2301 -24.7053
C -67.1914 -13.4507 -35.6140
O 128.4052 25.4235 -20.6274
F 138.6006 27.9065 -4.6099
O 135.9601 33.4520 -1.9744
C 102.2509 42.1000 36.8803
O 64.5682 23.5055 69.5654
O -0.9280 -3.5639 63.0081
O -80.3059 -19.2798 40.0469
O -139.3211 -33.7441 -8.3196
F -163.9933 -54.6244 -49.6760
F -134.1338 -36.5551 -93.3921
19

F 79.2478 178.9264 -22.8094
C 50.9298 110.0544 -12.2906
F 33.5874 67.6975 -14.3345
C 3.9589 11.9136 -18.8491
O -27.5349 -60.5381 -1.3656
H -48.4032 -112.6851 12.4775
F -55.6462 -118.6152 16.6300
N -45.4464 -92.5425 29.1133
H -20.8373 -19.2006 26.6118
C 84.9316 196.7445 -23.6659
C 87.6767 194.4501 -17.6259
H 90.2818 171.0980 -21.8548
H 36.8122 73.8951 -18.8961
N 14.2697 -8.3096 -36.6134
O -28.9492 -72.0076 -20.0772
C -61.3238 -143.9910 -2.1263
O -78.9320 -164.0700 27.3255
H -72.9509 -138.2751 48.6878
F -41.6720 -74.5451 49.6630
17

F 6.0556 -58.2220 131.8697
C 2.4969 -30.8332 78.0893
O -7.4459 -8.8866 45.4754
C 1.7267 1.5177 -7.3543
H -10.5433 12.5791 -71.8439
C -3.4985 37.5092 -83.5662
F -6.1082 39.2632 -79.3195
C -3.2472 23.7825 -46.5654
C -9.3634 2.3606 -4.8425
H 5.6118 -56.3137 139.0911
C 7.9405 -56.1051 123.4427
F 11.6707 -47.5596 109.4830
F -2.7682 -6.5356 18.7105
O -4.9049 21.6259 -40.2933
O 6.2939 38.2924 -91.9890
F 19.3344 44.8641 -113.8893
C -13.2510 42.6610 -106.4984
19

F -13.8361 -17.8530 189.0228
O -7.8372 -8.9725 120.5896
F -19.0340 -4.3435 121.1651
C -9.3064 1.3987 71.9306
H -2.9442 1.8203 -14.8062
F 16.4363 15.6674 -105.2067
F 24.5091 13.5104 -174.2471
C 21.7414 10.8662 -177.4712
N 22.4611 7.8181 -122.3780
N -15.1799 -17.2286 202.6039
C -19.7923 -23.2326 227.5748
C -20.7368 -11.7341 236.5586
F -19.7099 -4.0487 207.7938
O -30.5167 1.2481 163.1143
N -27.6734 -11.4855 51.1573
N -7.7003 -3.8978 -96.0168
C 15.5957 9.4198 -253.7626
C 43.8824 8.0847 -337.4061
F 49.6412 32.9628 -310.2161
21

F 282.7845 121.6449 221.3240
C 153.2988 63.2536 134.8647
O 69.2112 50.7421 104.2639
F -33.1951 8.0529 18.8038
O -144.0794 -6.2518 -43.6821
C -176.3405 -40.3043 -104.9370
C -152.4474 -62.6603 -186.3027
F -68.0272 -69.0603 -160.2257
C 11.6428 -68.9899 -35.9933
F 313.8082 124.5067 241.2060
N 282.5334 132.1417 226.1987
N 228.9074 125.0239 173.9308
F 41.4594 41.4809 61.2121
F -77.2838 -35.9455 52.9285
N -187.5018 -75.5208 106.5594
C -232.9920 -58.1268 116.6028
N -204.1012 -14.6305 35.4713
O -70.4930 30.0061 -126.5367
F 32.2807 39.3707 -320.5240
N -14.0086 -94.7768 -534.2734
C -55.4566 -209.9564 19.1089
18

F -54.9018 50.6538 -276.5720
C -38.3389 30.5955 -169.3402
H -18.5399 24.7668 -103.0095
N 24.2231 7.8050 0.7315
C 35.8401 -20.7191 109.0890
H 42.7927 -24.4411 173.1599
O 34.4620 -57.1981 170.7704
C 18.9936 -39.0043 124.1093
O 3.0632 -11.6349 15.7884
O -59.0341 76.1662 -287.9486
F -69.9805 71.5895 -282.0149
O -61.0788 67.7319 -244.5913
N -13.3565 36.2940 -88.0121
O 17.0564 3.5866 52.7968
O 23.3244 -6.0742 157.7357
O 43.1649 -41.4466 235.4297
C 43.3104 -87.0343 220.8145
C 28.9996 -81.6367 191.0634
23

O -125.1188 11.0579 480.4559
C -45.2102 9.4566 427.3153
N -62.1710 113.7292 207.7816
O -20.3038 50.1643 27.7467
H 78.8335 -116.7831 -222.4048
C 15.1193 -158.2785 -266.6873
C 18.4574 -136.1323 -329.1773
F 43.4795 15.9264 -128.8746
H 57.7144 18.6465 200.5917
N -81.8500 7.3195 330.3850
H -233.0983 62.9811 164.6562
H -84.9357 213.4743 71.2921
C -168.7635 254.8732 6.8075
O -267.8321 181.8807 -192.7138
O 201.4408 -128.8314 -351.4560
C -31.8400 140.6531 141.0061
N -15.7714 162.7641 98.0257
O -71.6301 105.0011 189.6077
N 820.1336 -173.0193 -93.8133
H 588.7231 -416.0902 -277.0069
O 39.7840 354.1965 647.3041
N -391.7250 -30.3731 -456.6846
O -263.4357 -542.6166 -674.1571
17

O 13.2927 -73.1242 -203.9682
N 14.7964 -35.8384 -114.2173
F -0.1883 -21.8569 -56.0557
N -4.8372 14.6543 31.9256
F 0.6893 29.1039 94.8018
F -7.6951 44.4287 131.3266
C 4.1943 31.8568 120.4907
O -15.1723 17.2940 64.6653
F 0.5808 5.6033 -15.8472
N -1.4679 -73.4503 -213.8384
F -5.3692 -42.2729 -216.8753
N 0.9449 -36.9612 -184.9511
F 31.0833 18.6490 -32.6648
O 8.4374 42.1354 80.2036
N -9.3271 25.5545 132.0916
O -14.9245 13.2157 213.9255
O -15.0375 41.0082 168.9870
15

C -14.9276 -5.8676 -0.4783
C -8.2970 -1.5808 -1.4240
C -1.6036 1.2811 0.7133
C 4.8214 2.6372 1.0688
C 9.3018 4.6680 1.7840
C 11.2065 3.2307 0.7487
O 8.4161 0.1211 -0.7427
C 3.4117 -0.5768 -3.1482
C -2.4489 -3.9730 -2.5508
H -17.6542 -6.5524 1.7856
H -15.6890 -5.2092 0.4898
H -10.6746 -3.0713 -2.3382
H 2.2351 6.0818 -1.9791
H 18.8545 6.4035 2.5268
H 13.0479 2.4077 3.5443
16

F -8.4085 -62.7230 120.0764
F 4.3713 -29.5410 62.7884
O -15.4047 -28.8184 14.3309
C 1.0960 -5.9816 -4.3594
H -10.0196 14.8481 -52.5882
H -3.2122 56.7015 -89.7425
F -5.2436 67.1769 -86.0760
F 6.7051 39.6969 -33.9572
C -22.1788 1.5525 2.8587
H -16.8618 -68.4321 125.2191
F 14.7864 -63.6178 119.7920
H -11.6211 -69.3296 106.6377
F -4.9480 2.8151 -3.3614
O 5.3035 41.7736 -71.6738
O 46.6580 71.0443 -124.3438
N 18.9779 32.8344 -85.6008
20

C -97.2089 103.1245 268.3929
F -49.2498 65.0285 167.3769
H -27.3222 42.3335 114.1801
H 1.3543 8.2794 19.6432
H 28.5391 -39.4463 -91.3581
N 54.4421 -62.5538 -166.4648
F 62.0130 -65.1410 -191.1040
O 43.9942 -54.2948 -159.5696
C -7.6727 -19.7787 -61.6597
N -101.0856 113.3069 299.9890
C -78.5356 111.6078 304.1325
F -38.8868 102.3371 284.6783
H 1.3423 60.1471 145.4041
N 0.2768 13.6838 49.6711
O -6.5846 -63.2697 -83.7989
O -19.0716 -113.4285 -201.7897
O -36.8894 -132.4361 -283.7006
C 24.8114 -116.1847 -263.7633
H 48.7091 -49.9375 -167.0033
C 197.0248 96.6227 16.7439
21

C 210.1971 293.5616 -98.9563
F 138.0337 160.0309 -52.8082
H 62.9586 91.6884 32.4442
N -24.2989 -13.5696 53.8556
H -101.7133 -144.6403 82.4652
N -151.5277 -237.4034 63.2870
F -131.9237 -204.4848 2.9937
C -69.7565 -82.4643 -36.4800
H 26.1652 99.2751 -92.5410
N 244.1502 305.1865 -120.0032
F 221.6279 287.7033 -52.2692
N 147.4785 249.8072 9.0811
O 31.2161 112.5729 147.0241
N -45.4732 -9.8218 137.6528
C -119.5962 -192.5632 82.7229
O -158.0671 -305.1420 -40.0504
H -150.6978 -365.4117 -174.1946
N -63.6291 -309.1954 -109.6134
H 43.2914 -59.7692 -113.4460
C -68.8461 32.4228 298.3924
H -39.5891 292.2169 -19.5569
19

N -136.2944 169.3877 -130.9634
C -84.5502 105.1434 -80.4251
O -59.1919 74.5757 -57.8854
H -17.0136 27.1965 -15.8292
O 34.8425 -38.0177 34.4570
N 76.8581 -95.4772 75.8355
N 97.1773 -122.7899 93.6277
C 85.8004 -112.9778 80.4674
O 41.5945 -58.4112 39.5924
H -147.8353 183.5902 -143.1242
C -153.2014 185.3823 -142.5478
F -142.0780 175.0629 -133.2210
C -75.8128 89.4043 -76.2706
O -31.0479 40.2885 -36.4368
N 21.3630 -22.4711 26.1913
C 88.8560 -102.2542 92.6004
N 136.1441 -172.8396 132.3352
H 148.6047 -186.7533 142.8169
H 115.7850 -138.0396 98.7796
18

O -40.3068 33.3807 1.6159
C -25.9877 19.9117 2.5505
C -15.7552 11.6957 12.8386
F 0.8599 -2.0543 11.7165
C 20.1839 -10.4189 4.2395
N 28.8018 -11.3639 -6.2962
N 24.5070 -16.4782 -14.3211
F 16.8083 -23.8739 -14.3079
C -0.4643 -18.9602 -6.0399
F -39.0457 34.2577 4.2935
N -41.1688 32.6802 2.6450
H -35.1619 30.7726 4.1929
O -3.6434 5.3623 13.3042
C 15.3160 -0.2658 20.3374
O 24.6302 -7.1250 15.9057
O 31.3051 -20.9667 -6.6051
F 18.9978 -30.3684 -16.3936
H 20.1239 -26.1857 -29.6757
18

N 82.0433 -48.2787 -85.3877
F 54.6620 -27.9640 -57.8811
F 34.5939 -17.6218 -24.4719
N 15.6932 -15.2620 9.1344
C -34.5192 8.2260 43.9028
N -57.4600 19.8093 62.2996
F -63.5087 36.8298 48.8143
H -62.7185 40.0727 26.3525
C -17.4592 25.3464 -20.1170
F 91.7347 -49.5241 -102.1697
N 103.1404 -48.2763 -96.9568
H 94.7908 -43.6063 -70.0641
F 41.7068 -33.3595 -10.5805
O 9.5219 -25.8502 36.3442
O -35.8912 2.0905 63.3423
O -75.4552 46.9020 86.4933
O -88.1705 67.2881 57.0153
F -92.7046 63.1783 33.9299
18

F -16.3576 -83.1335 95.5709
F -9.2798 -46.6920 58.1823
N -9.5706 -31.7618 34.6740
H -3.9424 -7.0077 0.4941
H 5.5307 27.3306 -40.0057
C 10.3003 49.4828 -58.0396
F 12.4086 52.5664 -64.7731
O 18.0032 42.3300 -42.3026
H 8.6339 10.1171 -7.7972
H -14.5726 -90.1408 109.3520
F -20.1143 -88.5395 103.4970
O -18.7601 -75.7766 85.2084
F -18.1839 -32.6330 29.9699
N -13.8454 1.5670 -4.1212
O 3.4075 39.6090 -48.8297
H 17.2622 69.9680 -82.0310
N 23.0208 87.2671 -93.2564
C 26.0595 75.4466 -75.7920
17

O -53.2575 -14.5378 5.7507
F -30.4241 -9.0693 5.3469
C -15.3320 -7.1941 3.9789
N 3.1815 -0.5024 -4.0781
C 24.7230 5.6853 -6.7669
O 35.9474 12.0971 -3.6340
N 34.3372 16.0023 -5.9490
F 19.7515 8.1533 -1.2716
H 1.0318 0.0511 5.0704
H -55.0694 -16.8725 10.0735
F -56.8971 -16.0999 4.6840
N -49.3256 -18.0183 3.9729
H -9.2116 -3.1662 -1.0503
C 17.0307 3.4739 -5.8077
N 40.6395 13.2368 -1.4632
H 50.8690 10.3447 -1.8144
F 42.0058 16.4160 -7.0421
17

C -73.0112 58.2576 -29.6374
H -40.8505 31.3379 -20.9920
C -22.0214 13.3909 -3.7642
N -1.8687 -10.9007 -3.2607
O 38.0997 -23.8189 -3.1211
N 47.3864 -42.9402 29.5984
F 49.9193 -29.0994 16.9585
F 31.1163 -23.8819 2.9447
C -1.2372 9.7435 13.3601
H -81.3450 48.3396 -16.9746
F -79.1875 64.2051 -18.8245
H -92.5622 42.6858 -39.1053
C -10.8477 6.6493 9.5684
C 14.2117 -15.4530 1.1213
F 56.7145 -30.1907 21.8786
N 88.3596 -49.1127 22.6090
H 77.1237 -49.2124 17.6408
19

H -169.0041 87.0777 -60.8923
N -103.6353 53.4186 -36.4727
C -74.0522 33.7904 -32.0198
C -17.6534 5.3628 -13.1107
O 46.1803 -26.5913 9.2247
N 96.8780 -49.3197 31.6146
F 117.4153 -55.2784 46.4721
N 104.2760 -48.2774 43.2770
C 47.8211 -22.4465 29.7410
F -183.5473 94.4419 -64.1351
N -189.4979 94.3866 -64.8341
H -177.0744 87.9530 -62.1336
H -92.2351 35.1883 -41.3618
O -33.3908 7.6515 -34.3090
C 37.2859 -28.0740 -9.5369
N 116.2706 -61.1918 30.8946
O 168.0418 -83.2042 65.8435
H 174.6625 -78.3556 82.6861
H 131.2591 -46.5321 79.0522
15

C -18.4031 -30.1071 30.7801
C -5.2750 -17.9725 21.4021
C 0.7358 0.5930 5.9054
C -1.8034 9.4534 -2.2957
O -0.5829 4.8116 -15.0457
O -0.1254 11.5180 -29.7141
C -0.8468 23.6529 -22.8586
O 6.7017 24.7436 -10.8163
H -4.4339 -15.2465 5.8785
H -22.7706 -32.1555 31.3539
F -18.5934 -16.8666 32.7047
H 3.3768 -31.6372 15.4076
F 13.8634 -7.2459 4.6871
N 36.8812 25.4457 -24.4358
O 11.2756 51.0130 -42.9532
18

C -13.1956 -12.8789 16.3444
F -3.9218 -5.5903 8.5958
C 5.9549 -0.9879 4.1636
O 11.8036 1.0430 0.0071
H 10.3120 4.5676 -4.7447
C 5.4837 6.4902 -8.5764
O -1.7584 3.0159 -8.7160
C -7.0361 2.4386 -7.7437
N -8.9429 1.3773 -9.3763
H -15.1854 -17.8417 18.2586
H -11.3702 -10.1501 18.7317
H -13.6987 -12.6194 11.3121
H 8.4254 14.7987 -4.8101
O 26.0431 12.9697 3.7108
H 16.3092 -3.8584 -1.6583
H 9.1852 0.3489 -8.1718
H -6.7847 6.7108 -14.4966
H -11.6233 10.1661 -12.8302
23

N -118.0113 26.6796 -65.1011
C -129.1790 -26.9862 -41.5914
C -110.6798 15.1576 50.6544
F -96.4533 119.3611 114.1973
F 52.2804 30.1974 204.6809
F 72.4634 -95.9019 64.0196
C 187.3916 -68.6566 -50.6843
C 161.4715 -63.5709 -96.7754
C -142.3607 -109.9145 89.4080
O -148.3157 227.8410 -29.2181
F -213.8492 151.9495 -276.8021
H -362.2259 266.8596 -166.3040
H -11.3242 192.1407 39.0801
H 208.6926 -190.1788 287.3040
F 340.8299 152.9141 579.5745
O 82.2458 -158.3324 604.3096
O -68.2720 -398.6508 103.7520
H -72.4066 -69.4830 515.4490
H -107.1007 367.7703 739.6366
F 295.2373 23.0849 -790.3911
O -256.1058 -416.7949 -749.2554
H 429.2228 71.8360 -1042.9337
H 6.4486 -47.3218 -83.0093
14

N -5.4918 15.7635 3.9844
C -2.6564 7.9003 3.3257
C -2.8556 1.3662 1.0919
O 0.3975 -3.7508 0.8006
C 4.2594 -8.0228 -3.0947
O 4.4461 -10.9133 -9.0205
O 4.0610 -9.9886 -6.5780
C 2.0226 -9.4519 -2.4163
H 2.5846 -3.8072 -1.9533
H -6.0479 17.0292 1.7583
H -4.2130 14.8628 6.8951
H -3.2337 12.0379 6.0947
H 1.6808 -8.0783 1.7387
H 5.0464 -14.9469 -2.6265
14

C 12.6700 -1.9434 2.4352
C 6.3811 -0.0024 0.4114
C -0.9245 0.3424 -1.9052
O -5.0928 1.5206 -0.4075
C -8.6085 1.3301 -0.2170
O -8.4567 1.1374 -2.1566
O -6.5058 0.9194 -2.4696
C -5.3894 0.8000 -3.4695
O -2.2743 -0.6758 -4.0350
H 15.4551 -0.5669 3.5220
H 9.7508 -3.1703 4.0269
H 6.9824 -3.3823 4.9889
H -5.7075 2.6849 0.0575
H -8.2798 1.0063 -0.7816
22

N -158.5727 299.4482 223.4641
C -100.4046 204.2267 91.2134
C -79.5927 187.6658 39.9865
O -91.3752 94.2330 -18.7299
F -47.5167 -39.1215 -6.0388
O 2.7429 -245.1219 -1.2137
F 115.8725 -378.5344 -53.7289
C 178.7445 -244.3843 -164.7262
C 14.1822 46.9721 -195.6279
O -237.1245 308.6173 286.0338
H -63.8161 344.2762 100.5292
F 24.6491 358.3479 66.6306
F -69.3418 514.5231 -40.3943
N -196.5804 274.6302 41.9412
O -96.7434 -21.8976 95.8817
C -14.1857 -273.6809 70.0801
F 136.1324 -298.2820 -61.2416
C 14.4874 -156.7415 120.4902
H 84.7794 -71.7395 150.9909
O 97.2998 -317.6859 -20.1204
H -54.4337 42.0761 -729.7343
C 540.7972 -627.8270 4.3142
16

N -37.7068 32.6766 20.4535
O -17.3733 20.6478 7.3149
C -1.9616 12.4681 -1.8308
O 16.9888 -10.7251 -4.0570
C 19.5906 -23.7206 -6.9805
C 19.0821 -29.4991 -9.1527
F 14.8772 -20.8287 -7.6645
C 6.6440 -16.1924 -6.7167
H 7.4239 -4.1517 -17.8212
H -49.1848 27.6915 19.1689
H -40.5610 43.2665 26.7694
F -43.6863 21.1938 14.7467
O 1.8438 21.9958 -12.1111
H 42.8622 0.7849 3.0264
O 31.6025 -43.6574 -7.8251
C 29.5586 -31.9501 -17.3202
18

F 128.1427 127.7385 -174.3186
F 84.1450 80.7212 -107.3770
H 44.3301 52.0394 -64.0709
N -3.2464 18.9294 -3.9952
H -56.9356 -39.9894 67.7260
N -87.5453 -84.3999 115.7411
F -84.9978 -99.3336 111.3031
C -55.2096 -77.9757 87.6190
H -5.3726 -14.0491 15.6827
N 144.3224 142.3868 -184.1764
F 130.3368 149.5669 -189.8845
N 116.1971 142.2164 -157.0461
N 41.8251 68.6595 -73.1609
N 4.5658 -3.4949 -3.3067
C -67.5645 -77.4699 95.7512
O -116.7920 -120.0826 155.3533
N -134.0651 -153.5118 150.0264
C -82.1360 -111.9509 158.1334
22

O 452.5533 16.7823 -224.7797
C 220.1844 36.8167 -134.1019
H 72.8938 86.3015 -156.0511
O -79.5546 134.6602 -20.6595
F -345.3934 206.8094 124.1063
O -312.9770 66.3372 253.7701
O -366.4671 -186.1714 87.6491
F -33.2630 -334.8594 47.4353
C 114.2701 -247.9904 -79.9491
C 384.3650 -144.7416 -96.6880
H 430.7845 127.4607 -56.8836
N 239.1276 148.6337 97.1198
C 42.7071 619.7616 -300.9427
C -96.5357 654.1068 -546.6733
C -253.4461 195.9963 -411.0038
C -325.5496 -191.0122 -235.1921
F -130.5850 -345.3067 208.1523
H 309.9337 -259.7919 712.0261
H 492.8728 30.2136 602.8419
C -431.3325 -339.7430 310.2707
O -371.2849 -39.1214 -323.4371
C -13.3035 -235.1419 142.9906
19

O 139.1133 -163.4289 -73.1186
F 86.9012 -98.2460 -54.5232
C 86.2975 -67.8755 -50.7103
N 57.7191 -26.8103 -24.8386
O -7.6261 36.1093 9.4969
N -74.1198 85.3976 45.8502
N -123.3812 109.4652 77.8407
C -136.5034 96.8199 62.9382
H -88.3165 48.3062 42.5107
O 144.9678 -172.2746 -76.3593
F 164.8914 -169.8332 -94.5399
N 161.8097 -161.6475 -104.5586
C 131.6616 -57.1832 -88.0662
C 112.3733 -30.2051 -50.2743
N 42.8423 41.2856 2.2238
C -64.7668 108.6204 53.5037
N -176.4599 153.3296 96.0356
C -238.3081 161.3905 123.1214
O -219.0954 106.7802 103.4677
17

C -59.9422 40.9065 -7.8816
O -27.8054 30.2165 -9.7442
O -6.9736 13.1833 0.0126
N 20.7209 -7.1224 -5.6795
C 35.2370 -21.4821 -1.1684
N 32.3629 -37.3095 16.9944
O 29.3348 -27.8450 12.6600
F 9.5246 -25.3369 -1.5773
C 1.6680 -10.3100 1.8076
F -68.6928 31.6635 -0.9640
C -57.0780 53.7604 -1.2078
H -61.7816 47.2001 -17.4267
O -5.6044 36.4892 -4.8476
C 38.0825 -0.9536 -6.9542
F 35.3254 -22.9142 14.6231
C 48.0412 -46.6924 4.3705
H 37.5807 -53.4531 6.9831
15

N 3.7568 -5.8777 -61.2019
C 4.4278 -4.7631 -32.9943
C 3.6320 -7.1635 -7.4103
C 5.5405 -9.3522 23.2168
H 0.4171 -0.7319 44.3186
O -8.5935 19.6866 45.4521
O -13.0692 17.3616 35.0690
C -6.0480 2.9326 16.5104
N -2.2107 -13.4971 6.6808
N 1.1898 2.8313 -57.0909
H 3.1448 -8.9078 -59.0970
H -5.8166 -13.0993 -41.5385
H 18.6532 -14.6039 2.6754
N 2.5021 15.6565 38.9470
O -7.5260 19.5281 46.4628
20

H -27.8216 -57.6065 99.8271
C -19.3000 -34.9585 59.3086
N -11.0848 -29.6396 54.3508
O -7.7729 -6.5785 51.3605
F 13.6269 15.5752 22.4027
N 10.4244 37.9175 -25.1831
O 20.1343 40.2732 -112.8229
F 20.6890 26.5268 -130.5972
O 5.0425 18.9242 -59.8362
H -21.6030 -67.6233 110.2439
F -29.5161 -45.1573 90.9149
H -40.9986 -48.6050 34.5265
N -10.4095 -41.7729 25.1779
O 0.8239 -12.8444 108.8090
C 18.7384 37.5440 228.9029
N 18.4402 61.4566 285.9925
N 9.9655 68.6963 190.9309
C 5.2936 51.3468 -80.4689
N 17.6315 17.0997 -333.9975
H 27.6962 -30.5741 -619.8425
12

C -1.5505 0.6770 1.7949
C -1.7165 0.1639 0.6905
C -0.4308 -0.1113 0.2714
C -0.2409 0.1701 -0.4236
C 1.9789 -0.0029 -1.2689
O 2.6685 -0.2152 -1.4389
C 3.3647 -1.1642 -2.4610
N 1.9966 -1.5945 -2.9367
N -1.1902 -0.7074 -2.5948
H -2.8002 0.3844 2.7468
H -1.1568 0.3050 3.4585
H -0.9228 2.0952 2.1617
19

F 12.7109 -171.1973 -117.2806
N 6.0204 -105.2722 -73.7979
F 4.5652 -73.2570 -39.5925
O 5.0272 -26.1503 6.9130
H -3.5036 41.3190 51.0085
N -8.9262 98.0956 73.4574
F -7.2594 123.0936 71.2980
N -7.5298 102.7059 42.3254
F 4.3957 50.6226 -8.2207
O 13.5318 -180.3416 -125.2515
F 11.2689 -182.4988 -124.1960
N 0.1211 -172.5242 -108.1902
N 3.0001 -88.2004 -32.2374
O 3.3778 -42.5500 27.6347
O 6.9781 28.4111 75.3829
O -3.7170 109.8876 108.4300
O -11.4787 172.7118 97.3024
F -21.2989 179.4953 69.7719
F -7.2836 135.6494 5.2425
17

F -3.3438 -91.4558 38.6641
O -1.5558 -58.1412 19.1622
H -6.0695 -26.7530 11.7331
H 0.9144 8.7073 -13.0461
O 0.6395 32.9310 -25.8780
C -0.9007 53.5887 -18.6808
N 3.4092 56.6050 -14.1501
C -2.4377 48.0262 -16.4557
N -1.7043 21.2142 -10.1576
O -1.3047 -106.8910 39.1055
N -9.4504 -93.9241 45.3225
H -8.0612 -97.0950 33.3411
C 7.6618 -24.8902 13.5325
H 8.2511 10.3793 -4.9454
O -4.1208 69.1584 -16.0514
O 19.2246 111.1742 -41.0222
O -1.1517 87.3662 -40.4738
23

F -258.1078 -128.1563 -67.5296
C -48.8230 -19.6555 56.1568
F 137.6830 249.2093 -49.8441
C 320.9001 237.4310 133.6827
C 289.3764 86.0746 41.2045
C 102.3243 -44.7393 116.7677
C -8.4093 -192.7371 -62.9739
H -468.3054 -102.5907 -179.3453
H -411.6558 -158.1802 34.7183
H -140.3537 -314.3325 -316.5282
C -241.3797 119.8909 -174.2486
H -137.2690 418.7854 -324.0906
C 62.6329 380.5034 97.5303
H -86.1699 425.3006 271.5211
O 395.1856 -473.0916 -67.5422
N 31.1965 -56.3535 54.2308
F -41.1762 344.5615 172.4180
H -343.0602 288.7605 394.2910
N 294.4546 -731.8954 291.6423
C 445.5930 -197.9922 240.5196
H 268.0371 496.7644 367.1177
H -19.4729 -123.7094 -833.6142
H -143.2006 -503.8479 -196.0840
11

C -4.6093 -2.3244 -3.6542
C -2.1027 -0.7255 -2.0927
C -1.5378 -0.3146 -1.8292
C -0.2054 1.1879 0.4163
C 1.2744 1.5266 3.2430
C 2.8934 2.0178 4.6221
N 3.4071 1.5755 3.5530
N 4.7443 1.5187 3.6681
N 5.7700 -0.3919 0.8450
H -5.9631 -3.0054 -4.0731
H -3.6709 -1.0646 -4.6983
21

C 92.1658 37.8697 102.4133
F 74.5327 19.2856 65.6060
H 97.4424 13.2206 -11.5770
C 86.9632 14.8414 -47.3706
O 40.3357 -27.7209 -64.2984
N -35.1391 -53.3228 -36.7309
F -133.1190 -69.7828 -25.0992
F -199.4642 -2.6924 -0.5228
H -187.1589 90.7891 32.2377
H 109.6984 31.2506 129.9073
F 141.7953 18.2700 68.5082
H 168.1744 -29.0868 48.7205
F 181.0334 53.0610 -74.3698
N 217.8367 63.1530 -126.3764
N 198.5923 94.4422 -130.0711
N 94.3426 40.0847 -76.8126
N -108.7172 -14.9266 -1.8858
C -299.4854 -126.2158 131.0975
N -354.5804 -191.6432 176.1437
C -125.2566 -195.1781 -78.6184
H -59.9919 234.3016 -80.9013
20

N -17.8778 -10.4761 -88.1739
H -12.1619 -6.1632 -57.1415
N -11.8462 -3.2035 -45.3706
C -8.2067 1.2752 -12.4968
O 0.9721 5.7289 28.8276
O 8.9573 6.4884 58.0612
N 16.6072 3.1394 64.8793
C 19.3560 -1.0409 55.3575
N 16.8225 -2.4753 31.7651
H -17.9769 -13.0353 -94.9357
H -27.7571 -7.5645 -107.9624
H -37.3637 -8.3592 -115.0823
H -27.8156 -4.9380 -82.8895
O -10.4379 8.1000 -28.9225
H 11.2736 23.5131 52.2920
F 30.7341 32.3116 130.9281
F 44.2660 23.9605 164.8404
H 35.5173 9.4489 133.0729
N 22.4940 -14.9289 47.0020
H -35.5565 -41.7809 -134.0510
18

C -111.5624 -56.5109 37.9328
O -65.8192 -35.4907 24.8999
H -45.8533 -23.9527 19.6477
N -8.1402 -0.9198 -8.7157
O 38.6085 19.0262 -17.5335
H 71.2123 35.3882 -26.0554
O 80.6211 44.7676 -27.4228
O 62.1163 27.3131 -18.0572
N 15.7274 -0.0744 9.7122
N -114.2654 -52.9513 38.8445
H -122.5467 -60.1751 39.0608
N -111.7914 -57.7484 38.0031
H -48.9162 -27.8954 0.6447
C -8.9183 3.6869 -0.6704
N 52.2670 27.4157 -28.9198
O 93.7223 50.9988 -27.4289
N 114.4730 59.1741 -40.8948
C 109.0652 47.9482 -13.0472
17

C -5.9518 -20.5912 5.0711
O -2.7485 -12.9125 3.2892
C -2.6093 -8.1085 3.2630
C -0.6411 -1.3829 0.3515
O 0.2478 6.3414 -2.0062
C 2.7189 12.5161 -2.9706
N 3.6057 15.3215 -2.4758
C 4.1079 14.0316 -3.0268
N 4.4152 8.0534 -3.2221
H -6.7382 -21.9984 5.8726
H -7.0318 -18.8853 5.1028
H -5.8272 -19.4879 4.3570
H -0.1902 -9.2297 3.9813
H 1.5579 -0.4739 -1.6306
H 1.6808 12.6781 -3.7814
H 7.8637 24.7319 -5.7161
H 5.5403 19.3964 -6.4589
16

H -84.3909 -8.9832 -26.0157
H -47.8930 2.1253 -13.9753
C -7.6416 2.9340 2.4403
N 22.5026 0.2722 -1.5511
F 40.9023 8.5226 0.4039
F 46.8886 6.7252 9.9628
O 41.3482 0.2839 14.0502
C 22.9749 -8.3480 5.6467
C 3.5336 -3.0749 1.7910
O -87.7901 -16.0543 -28.2011
F -74.1486 -6.3334 -18.1049
N -71.5100 2.7490 -22.5798
C -6.8721 13.8272 6.0277
C 68.0418 -1.9593 31.9242
O 72.5841 0.0918 31.2948
H 61.4702 7.2218 6.8863
23

F 90.9938 -219.2210 -45.6234
C 102.3488 -90.1242 -50.1890
H 6.1435 -3.8805 -72.9996
O -107.0145 -30.4744 -139.0930
C -95.2286 7.9004 -159.6296
H -142.4715 53.0667 -205.4277
O -2.2160 -77.0241 -48.7498
F -26.4186 24.6838 22.6925
O -240.7771 -54.4437 307.0208
O 95.5519 -154.7771 -51.6718
N 285.8244 -23.8075 315.3962
N 177.1865 207.6494 199.7150
H 105.8435 16.7280 -33.6844
H 118.6635 -131.0596 6.7941
F -170.9935 -123.6403 -89.3934
N -216.8755 315.1153 -335.9974
F -527.9624 231.7812 -97.9871
C -225.2078 -560.3179 -171.1036
H 567.9550 -344.8403 214.0933
N 671.6843 223.0190 -11.6723
F -314.3419 125.7443 410.0873
H 189.7064 772.2652 29.8953
F -342.3942 -164.3427 7.5275
21

F 115.6276 13.4532 22.0460
F 82.4343 -3.2734 11.2913
O 86.9219 -4.7532 -4.6028
N 83.4851 -13.9751 -3.2613
F 39.1383 -25.1722 -7.2615
C -33.0878 -34.6181 -14.7881
N -118.3548 -37.8197 -26.0881
F -185.4238 18.4627 -5.6144
H -185.6473 99.7443 44.7862
F 132.9766 5.9593 22.0751
N 147.4558 -6.8581 14.8104
N 152.9307 -51.2329 18.3859
H 167.8192 17.5927 -16.0644
O 212.1905 58.5418 -13.2419
N 174.5637 104.2774 14.0819
C 43.6712 44.1828 11.0049
C -133.9379 -17.1806 -45.8831
H -276.7295 -106.2164 -41.2123
F -288.2683 -163.7699 -59.5139
H -90.9492 -206.8033 -79.1343
F -126.8162 309.4586 158.1845
19

C 6.5207 -55.2303 36.6640
F -1.5431 -37.3521 27.6512
H -19.6817 -27.1569 29.5809
N -22.7170 -10.3015 16.4199
H -27.1758 7.8164 -3.5525
N -9.4918 33.4902 -27.4339
O 21.2212 50.1393 -45.3203
F 33.2199 45.7858 -47.4704
H 50.1276 30.6237 -30.0750
F 13.6156 -67.4261 41.6530
F 0.5042 -66.9047 52.7456
N -23.7789 -64.9143 53.9091
H -43.6186 -39.5509 55.2808
N -59.6063 -30.7759 43.7526
C -61.3578 -22.4421 25.0337
N -28.1119 14.5316 -13.2007
H 23.6662 60.5288 -62.5517
C 67.8174 92.3908 -76.6556
H 80.3900 86.7484 -76.4304
19

F 194.2970 -20.1541 51.3790
C 120.7749 -13.0815 27.7935
C 88.6720 -6.6423 8.3670
C 27.9544 -0.0241 -11.7439
N -46.9429 5.6501 -25.1411
C -110.2692 7.7499 -24.6263
C -142.9050 6.4826 -19.9800
O -132.0640 14.8722 -11.8660
H -60.8622 16.2766 8.7383
O 214.7281 -22.6582 57.7309
N 216.9622 -24.6789 44.7257
F 202.2191 -23.6722 37.1822
F 114.8659 -7.1220 -1.3758
O 56.3973 -3.5648 -22.8450
F -29.6691 1.1106 -35.2907
N -127.0940 15.6753 -40.3085
H -202.9478 25.7307 -31.6902
C -215.1898 22.5619 -16.7360
H -168.9270 5.4882 5.6870
20

O 149.5390 16.0242 -69.8785
F 95.4156 12.3824 -39.6132
C 79.8658 18.2299 -23.5450
C 45.5952 3.7427 -16.4202
H -20.6287 -12.0526 2.7055
N -81.2572 -15.2054 27.8053
C -126.3507 -3.7966 57.4340
F -132.7551 0.0254 54.1262
H -77.9125 -13.0923 6.5749
F 155.0023 19.9587 -67.0156
H 177.9193 27.9850 -48.2573
O 182.4256 54.1542 -15.7501
O 134.3899 49.3070 12.7770
H 70.4224 -24.2237 -12.9072
H -18.2709 -98.9778 -89.7714
N -93.0271 -165.0845 -152.0873
O -143.2121 -171.5389 -127.3182
N -167.2359 -78.8758 -4.8758
N -166.7514 65.1666 126.7999
F -63.1736 315.8715 379.2172
16

C -3.4342 -9.4244 -9.3118
C -2.4521 -3.8239 -4.6606
C -1.3181 -0.6026 -1.9890
O 1.1120 2.5014 0.5922
C 3.0235 4.4448 3.2758
C 3.8169 4.4472 7.0768
C 1.6687 3.9931 5.0687
N 0.8217 2.2838 4.8041
N -0.6969 1.7059 4.6259
H -3.5302 -11.8672 -8.7472
H -4.0662 -9.1474 -6.7379
H -4.8743 -7.9842 -8.2289
H 1.0669 2.3588 -2.0792
H 3.9684 4.7865 4.8988
H 3.6085 9.0247 6.1208
H 1.2852 7.3035 5.2913
20

F 262.1226 199.2512 -148.2732
O 175.8094 112.8855 -104.0881
F 90.1668 83.9160 13.6873
N 9.9789 41.7122 85.9860
H -103.9820 -54.7398 155.5299
C -179.9890 -124.4578 142.4010
F -164.4381 -160.8918 24.4217
C -120.8749 -152.8837 -67.6932
H -37.0413 -39.2992 -129.2863
N 303.7473 228.4230 -192.1077
F 263.3894 233.8734 -153.3612
C 228.3783 229.6951 -134.8940
O 116.0138 102.7788 43.4713
O 38.3927 50.2710 232.0438
C -91.0418 -35.9243 405.4493
N -234.4434 -103.0238 464.6357
O -293.4879 -152.0851 263.6405
C -221.3153 -221.4611 -10.9910
H -27.9772 -129.1010 -438.5476
C -13.4081 -108.9384 -452.0244
13

C 2.4282 -6.0471 -1.5074
C 1.7468 -3.1989 -0.2829
O 0.6770 -2.7485 -0.6888
C -1.1691 0.5164 -0.5216
C -2.3145 4.2133 0.2200
C -2.8275 6.6199 0.9172
O -3.6745 7.1163 0.8084
N -3.1448 5.2614 0.3944
H -0.5838 2.3157 1.2201
H 1.0851 -7.7793 -1.5134
H 2.9345 -6.2514 0.1044
H 3.2428 -2.2236 1.3048
H 1.5999 2.2059 -0.4553
22

F 136.0618 717.8414 90.0240
O 150.0233 368.6304 32.3843
H 96.5978 102.0853 -68.6979
C 33.1000 -145.9712 8.4562
C -123.5185 -241.4782 -4.7273
C -217.2569 -279.1546 93.9164
F -204.5519 -224.2645 90.5842
C -0.4190 -211.7657 -21.8787
H -4.3770 -199.6690 -130.7046
F 142.2346 833.9243 187.4007
C 198.7960 612.3698 114.4694
C 130.2096 317.2277 -67.7645
F 395.2861 -31.9062 -168.8765
O 422.0874 -168.7085 -131.0226
O -226.3796 -287.1700 -350.1316
F -455.0631 -395.8363 -176.9687
O -608.9996 -289.2853 -116.6819
H -160.5608 -104.5904 -14.1686
O 128.1719 1.0056 276.8940
N -288.7402 -40.4096 -149.1637
H 108.2620 -388.9225 -12.0062
F 349.0362 56.0475 518.6639
20

O -169.7841 43.2385 -86.6257
N -105.8579 30.5904 -44.7058
F -100.8865 25.4262 46.2289
N -22.0570 20.2809 89.1644
H 32.5767 3.5400 103.9496
H 98.5339 -21.6792 49.4314
F 149.7247 -45.2637 -30.4308
O 119.6612 -68.9640 -97.2164
H 72.5402 -32.2084 -142.0312
O -193.3900 78.6301 -70.1229
N -203.0908 63.5677 -18.4903
H -186.6440 63.6567 31.1937
F -101.5079 56.1272 156.5043
O -61.2487 61.3810 234.8904
O -2.8078 34.6688 227.2368
O 51.7853 7.2749 157.1935
N 118.3117 -39.0304 -31.8822
N 198.9217 -109.1844 -189.8610
F 222.4157 -86.6673 -339.3420
H 82.8035 -85.3852 -45.0847
16

F 3.4851 25.0098 -74.1606
F 0.8268 15.4204 -44.4072
H -3.1295 6.5828 -14.6149
C 7.0360 -10.5323 20.8493
H -2.3873 -22.1856 47.7456
N -8.5508 -12.5155 50.4830
F -11.5079 -7.9648 40.8718
C -12.1467 -12.8370 25.0400
C -4.8595 -10.5590 -3.0859
N 12.7486 32.1268 -84.3748
H 7.8385 17.9391 -77.6066
H 3.7056 15.2292 -53.6751
H 7.3708 -8.9962 -2.1754
N 3.0180 -5.0754 39.4657
O 1.2417 -8.1523 62.5226
O -4.6894 -13.4900 67.1225
19

N -262.0879 183.6377 -93.9552
F -159.3906 115.3596 -54.9850
H -109.0045 83.5390 -52.5387
H -26.2994 30.8061 -29.7924
F 73.5710 -35.8271 9.0380
O 148.7658 -101.2675 45.9418
F 183.2841 -135.1847 75.5856
O 157.4720 -129.2838 79.4108
C 67.6368 -78.4878 59.3858
N -284.0197 198.2118 -98.5404
N -293.8433 199.9810 -102.3686
F -270.2343 188.5898 -103.5824
N -135.8092 107.5055 -85.7253
N -44.0706 67.1900 -66.1068
N 63.4376 -4.2367 -25.7595
O 181.0500 -99.7190 41.8127
C 254.0556 -189.2828 103.3772
F 266.4118 -220.9014 151.8603
H 189.0748 -180.6297 146.9418
22

F -334.2719 -128.2389 308.3580
F -110.1276 -40.0973 180.4448
N -29.9195 3.1544 37.3780
O 117.1376 114.6360 -43.1359
C 103.4759 59.6807 -140.8876
C 118.5638 66.5648 -192.9971
C 97.2152 -43.5840 -183.3653
N 2.3560 -2.3445 -76.6331
H -193.7528 -57.6404 115.7451
F -368.4126 -182.0143 351.6575
F -197.6198 -59.5107 215.5370
H -61.5143 -3.1940 0.1040
H 180.7095 268.6628 -171.8123
O 267.2374 255.4722 -235.3482
O 258.2452 -50.1705 -189.4466
H 91.0709 -67.1018 44.4150
O -93.2715 59.6977 71.1598
N -326.2602 107.5990 113.3853
N -176.6093 121.7123 18.0777
C -42.6767 -319.6593 -481.0416
H 53.8877 -141.0631 192.4313
C 644.5368 37.4391 65.9744
14

N -6.5406 17.9443 5.3263
C -2.9191 8.5811 4.1192
C -2.2576 0.3725 2.2551
O 3.0128 -4.2500 0.3663
C 8.0947 -6.5966 -2.4760
O 5.9409 -9.9130 -7.5451
O 4.4848 -8.6338 -9.0948
C 1.6238 -12.1242 -3.0228
O 3.7775 -6.6799 0.6796
H -8.1686 19.8713 7.5107
H -10.9246 19.0181 6.0513
H -6.7948 10.8885 3.7352
H 1.1261 -11.6269 -2.4944
H 9.5448 -16.8515 -5.4106
19

F 185.6089 101.8830 -0.6632
O 115.1282 65.8030 -4.0435
F 72.5766 59.2352 78.9077
N 39.6537 35.2400 81.6640
H -37.2417 -21.9051 88.9884
H -87.9113 -64.7717 17.4323
F -117.8388 -80.4301 -68.7090
N -138.9891 -86.4306 -128.1327
F -66.0268 -26.5315 -166.0882
O 196.2490 131.9915 -1.4012
F 194.1165 118.3169 55.1819
C 177.0757 127.5258 89.4917
C 106.9740 77.0179 179.3917
O 62.3327 42.9482 238.4531
O -35.0955 -25.2908 190.6213
O -143.6497 -84.7912 91.6537
C -215.6397 -120.3862 -112.2559
C -196.3360 -161.8472 -252.1971
F -110.9867 -87.5771 -378.2950
15

N 12.5033 -0.1957 26.2244
C 6.9686 -0.5813 12.6107
C 1.7112 -2.2981 2.1737
C -2.2188 0.6039 -8.9188
C -3.1914 -0.5348 -15.8501
O -7.2711 0.0265 -18.3588
O -15.4634 -0.6147 -13.4939
N -12.3867 0.5949 -11.3253
H 4.6494 3.7761 10.7791
O 15.3421 1.1601 30.2402
H 12.3968 4.0904 21.3168
H 7.6806 0.3817 15.3144
H -2.0346 -2.0408 -7.5774
H -10.1736 -3.0431 -19.9502
H -8.5124 -1.3252 -23.1848
14

N -0.1796 -0.7635 -20.4888
C 2.1885 1.3296 -9.6274
C 4.5604 2.5043 -0.7959
C 5.6641 1.7842 7.6321
C 1.6386 2.0231 12.1179
N 0.0747 4.1813 13.5100
N -4.2713 0.8290 9.7035
C -6.1450 -2.7874 10.3499
N -6.5020 -3.9074 8.9879
H -2.3276 -0.8411 -23.1193
H -0.2701 -4.1272 -19.8974
H -2.3923 -4.5940 -12.8379
H 5.8457 -0.3750 8.4977
H 2.1159 4.7441 15.9675
21

F 197.8152 -58.3476 74.9498
C 101.0314 -40.8549 62.6934
H 6.0850 -8.5204 62.4258
N -64.9029 22.9611 8.3012
H -139.1212 74.5293 -40.1095
C -129.7446 66.1999 -69.0847
C -78.8674 33.1434 -115.3475
F -8.2575 -6.1985 -71.1373
H 111.4268 -76.0103 1.8228
F 239.9707 -81.7326 97.3265
F 175.7430 -46.6016 111.9010
N 70.5265 -48.4780 116.3873
H -64.3431 7.2529 108.9885
C -146.0067 17.9152 50.0046
C -168.5107 1.8885 -11.5989
C -97.5213 122.1712 -95.8885
F 13.6055 191.8755 -217.3667
C 130.6228 236.4547 -170.1050
H 120.5813 137.2873 -132.3301
O -224.2718 -248.7636 76.6343
H -45.8611 -296.1712 151.5329
20

F -20.7178 124.0119 209.9507
C -12.6726 85.4839 133.9471
N -7.9744 74.6833 90.4481
C 6.0853 54.6670 23.1664
H 34.9288 1.2581 -60.5246
H 20.7561 -61.5363 -128.6212
F -1.2880 -130.0070 -156.7524
N -2.3739 -137.3671 -126.1566
C 13.3803 -70.6327 -32.5948
H -19.3828 142.3009 235.8947
N -70.7545 127.3374 239.4037
H -108.9393 85.6823 227.1143
H -79.1026 80.5273 123.9048
O 52.1258 153.9081 20.0477
C 186.3644 173.1773 -111.4401
H 285.4304 160.6910 -213.4639
O 272.7336 84.6053 -271.5453
C 84.0042 -121.9374 -207.2319
N -131.9651 -288.8966 -50.9870
C -500.6379 -537.9567 55.4403
22

F 226.0931 -105.5113 -92.8776
O 129.1195 31.4099 74.0550
H -35.0472 -2.4518 169.6767
O -230.0262 19.0316 129.6858
F -192.8318 -113.6029 125.9180
F -287.4244 -282.3171 47.1818
F -124.1342 -240.5163 -92.4639
C 168.0328 39.4646 -82.0342
H 395.9669 281.4091 -77.3714
O 159.7462 -75.5695 20.4416
N 92.4524 168.1935 -88.5426
N -2.9222 286.0706 181.0015
H -149.9742 401.3386 291.0142
N -167.1167 -12.7505 35.8126
N 145.7162 -281.1681 -228.4414
N -12.6661 -191.3336 -432.0784
C 122.8604 -327.4570 -808.3613
O 68.3555 -209.2145 -267.0636
F 530.7098 651.7614 -122.3702
F -340.4564 -161.5672 666.3152
F 32.1567 335.8130 -20.0929
C -528.6100 -211.0322 570.5950
23

C -121.8585 -30.6094 -9.3906
C -77.2182 -40.7180 12.1540
H -59.0944 -87.6624 33.0297
O 38.2469 -100.1579 100.1937
C 103.6247 -88.5809 90.1436
N 107.0112 12.1404 65.0521
F 123.4203 92.7968 25.0447
C 107.2785 101.1303 -91.0264
H -164.6893 137.9081 -188.7301
C -132.5797 -52.7227 -5.1693
F -281.6102 -101.3593 -10.7891
F -401.9858 -137.1109 22.8889
H 55.4353 -37.3121 -97.8095
C 213.4447 -69.7209 -65.9000
O 166.9344 -140.5527 24.6311
O 101.9230 -263.1316 172.3467
F 86.3036 -304.8203 115.5434
N 282.9677 -85.8619 -67.4385
C 177.8220 345.3465 -369.6431
F -265.8710 402.7025 -429.4174
F -197.8558 352.5957 328.2522
H 450.8290 -106.3959 476.0253
H -312.4787 202.0968 -129.9913
21

F -126.9375 -194.1849 -98.2437
F -90.1289 -135.1700 -47.2014
H -8.5239 -61.9861 -27.3452
N 87.4480 24.6098 62.0918
C 127.9236 103.5460 124.7602
O 89.5990 152.4687 97.5101
C -1.9243 113.3303 30.4650
F -71.5466 55.9778 -59.1227
H -118.8544 -40.2137 -151.5163
O -155.6055 -203.8380 -76.4850
F -103.5182 -207.4396 -59.0095
C -61.5828 -184.3555 -31.8898
H 144.0357 44.1945 29.2783
O 244.8330 131.3018 148.7713
O 252.7084 230.8018 181.8953
O 188.7606 99.4860 193.8277
C 49.4580 31.2694 85.0445
H -102.7333 -22.9812 46.0509
F -218.1949 -41.6223 -131.1356
H -149.9291 40.5724 -154.3623
H 24.7131 64.2328 -163.3838
21

F 34.6660 148.8235 -73.5835
C -4.7970 85.9829 -35.6162
H -57.4623 41.9723 -4.1782
N -94.9394 11.7214 9.1267
F -113.5286 -27.0702 24.6819
O -56.2829 -57.4966 108.0017
C 34.3696 -73.1098 27.3073
F 133.0171 -79.0903 -9.2469
H 147.3572 -51.4988 -81.1450
F 36.4982 147.8742 -62.8085
H -27.5428 110.8036 -29.7794
N -81.5565 114.9363 11.5030
F -194.5170 14.4447 -30.4908
C -205.0719 -63.4025 -43.8496
N -185.0937 -94.1891 -51.3899
C -38.8291 -9.3461 -18.8163
N 111.7676 110.0874 22.3106
N 346.6265 153.6379 219.9463
F 351.5039 81.1765 190.1850
N -72.7194 -331.0300 99.2103
F -63.4656 -235.2273 -271.3683
19

O 73.4162 -68.9565 -102.4933
N 47.3269 -42.6156 -65.8611
F 32.1717 -29.3440 -42.0044
O 13.2294 -10.9770 -9.7917
C -23.6490 16.1648 32.0584
N -47.2839 36.3753 64.2442
F -52.1762 48.6585 72.3473
O -44.1298 42.3148 60.2607
N -18.1326 23.9615 20.0561
N 78.8564 -75.9427 -108.1618
C 77.5822 -70.5864 -115.4919
C 70.0518 -67.2616 -105.6183
O 37.7324 -34.5557 -57.9034
N 18.8802 -17.5601 -15.7075
O -12.9513 5.8067 36.1976
O -54.3211 42.3510 82.0015
O -76.0646 69.0905 102.7015
F -76.8542 76.8475 101.1041
H -43.6842 56.2288 52.0620
19

O -43.2467 -179.9005 -146.2671
N -30.2972 -107.6741 -88.1190
N -17.7097 -72.4864 -52.6758
O 0.8617 -19.2459 -7.0274
C 11.4833 49.2730 47.1123
N 25.9552 100.0373 79.3369
F 32.1221 119.8155 88.5313
H 27.8550 103.8472 72.2061
F 13.5241 41.8379 26.0338
O -53.1831 -187.3802 -147.9369
F -54.9915 -184.9924 -143.8989
N -54.4972 -168.4471 -132.3954
N -20.3182 -80.4272 -60.3848
O -1.8435 -30.9028 -3.8219
O 19.0295 41.3375 45.5841
O 24.6532 115.0131 101.1333
O 41.1789 159.1651 121.8046
N 37.7383 169.3576 126.3355
F 41.6860 131.7722 74.4492
18

N -98.5415 -16.2332 45.8280
H -53.3954 -3.1377 30.8247
H -15.7418 5.8935 20.2608
F 21.6699 13.2316 -5.2226
O 42.1155 18.4784 -32.2150
O 49.8670 14.6340 -39.3740
F 44.7701 1.3756 -34.4487
F 21.0951 -9.5908 -13.5376
C -10.7189 -2.0538 17.4963
H -103.9710 -19.8063 37.1958
F -86.0393 -15.3731 55.7882
H -88.9442 -10.7393 58.1035
H -19.9994 7.1207 49.6726
N 37.2715 8.9503 13.6821
N 69.3010 1.0528 -25.5405
H 73.8850 13.4850 -57.4052
H 68.6436 1.4782 -76.9492
F 48.7328 -8.7658 -44.1591
21

H 117.9991 72.7163 -57.2261
C 66.0244 43.0527 -26.5244
C 28.2824 19.8989 -3.8829
N -10.5562 -6.2641 -9.7849
F -47.6940 -32.6862 -5.9800
N -64.8364 -52.0429 9.3432
C -59.6819 -67.3116 21.8103
F -55.8790 -12.0494 46.0555
H 14.4594 56.4604 13.3871
F 135.5281 57.7872 -54.7326
F 101.3881 24.0859 -16.7364
N 12.4641 -13.4921 24.6901
C -43.4658 27.9910 54.6641
N -25.5427 39.0785 -18.8908
C 14.8812 13.7069 -136.2666
C 85.9564 18.0534 -245.7821
H 155.5738 29.5047 -241.8819
C 114.4916 -41.8069 -27.2971
H -16.1310 -86.8322 214.4079
O -376.1185 -282.6263 458.5388
O -147.1429 192.7757 2.0888
16

N -50.7842 50.3763 46.9632
O -26.5461 28.5115 21.0038
C -9.2610 17.1933 -0.7700
O 20.3305 -10.4292 -13.6105
F 26.1255 -36.1771 -13.6820
N 29.2822 -42.1302 -33.3983
F 27.5093 -32.7588 -17.8883
F 12.7466 -28.7869 -4.5109
C 5.1952 -8.4714 -9.5424
F -66.7900 48.6162 41.1910
C -52.3143 73.1510 49.5545
H -58.9211 35.6065 37.2100
O 5.1561 25.6520 -20.9419
F 55.4506 -7.6488 -22.3677
O 49.7707 -64.7871 -22.2843
C 33.0500 -47.9173 -36.9262
15

O 2.3872 31.2241 -4.4822
C 3.4619 13.1251 -2.1129
H -2.9633 -0.8319 -4.0891
C -3.2350 -12.7819 -2.4187
C -0.0413 -19.3813 1.8931
H 3.8466 -22.5965 -0.8041
F 4.3809 -12.4535 0.6061
C -1.3096 -9.0669 7.4544
C 4.9148 1.2940 2.3677
N -9.3208 36.9643 -11.3139
H -7.8844 31.5998 0.8637
H -1.9852 17.8179 0.9493
H 0.5856 -6.0852 6.3235
H 5.1548 -25.0566 3.1624
O 2.0077 -23.7715 1.6005
17

C 30.7914 12.7348 -80.7453
H 25.1578 9.4210 -46.6299
F 11.8576 6.8996 -16.7168
C -1.8039 -0.4254 12.9795
H -16.0620 -7.8940 42.4147
H -26.4431 -4.5851 55.3506
F -21.0739 -3.9801 47.1316
C -13.6705 -8.6406 28.9097
F 3.6693 -6.8641 -4.2158
N 31.6321 14.0042 -87.3517
H 33.9486 16.6488 -91.0266
N 27.0437 0.7132 -67.0847
F 11.4662 3.9328 -4.4292
N -18.1405 2.2554 34.1439
O -27.4630 -11.2070 55.8369
O -26.9346 -14.4940 71.9072
O -23.9752 -8.5195 49.5256
16

N -13.3462 0.6116 -62.9733
C -13.2679 0.1696 -35.4274
C -5.5686 -0.7004 -8.9338
O 8.9371 -6.4370 13.3661
C 8.7404 -4.0964 32.0655
N 9.4551 -2.7458 33.4422
C 5.4785 -2.5326 29.0911
N -0.9479 -3.9490 21.8799
H -5.2265 -1.4593 -0.2045
O -18.0120 7.7793 -56.6449
H -11.3611 5.3260 -49.6249
H -16.6990 11.3268 -38.2625
H 0.8140 -0.6904 5.0777
N 16.6886 2.7658 27.3706
O 21.9331 1.1848 46.6839
O 12.3825 -6.5532 43.0944
18

F -20.5508 -58.0876 -97.3015
N -16.3576 -29.5685 -55.8496
F -10.1240 -20.5810 -37.0544
O 8.5379 -2.3672 5.7576
H 13.9705 22.3731 43.4693
O 12.6721 35.4354 65.3111
F 13.0843 39.7992 61.8132
N 3.9030 25.9807 36.4887
C -0.0268 8.3010 0.1873
O -24.0083 -63.2664 -107.1418
N -26.3148 -59.6310 -99.0101
H -21.6583 -51.3547 -86.8011
H 1.7974 -14.0663 -30.9421
F 6.5105 -1.0821 21.4810
N 13.8567 24.1932 56.2741
O 16.8798 44.9365 82.7363
O 17.7386 58.1751 83.3595
N 10.0898 40.8106 57.2223
16

O -19.7394 -14.2664 -29.3555
C -12.3810 -7.7315 -16.4817
H -3.5431 -3.4675 -3.2199
N 3.3251 1.1763 7.0102
C 10.1191 4.9998 14.8907
N 13.1495 6.5872 15.3515
O 12.4992 6.1802 12.6815
F 10.1051 4.2280 4.2568
O 4.3037 0.5673 -3.6445
C -23.8277 -13.9179 -24.0574
F -18.6533 -6.9497 -20.8076
H -20.0322 -4.0133 -15.5323
H -5.5014 3.4099 1.6947
O 10.8445 6.3500 14.7332
H 19.7167 9.6274 21.5804
O 19.6150 7.2202 20.8999
27

F -151.9010 121.3853 171.5049
F 17.4111 -12.2926 46.3575
O 37.8083 -156.5869 -159.7767
O 244.6914 -97.2774 -58.9305
F 109.8324 -233.0481 -124.8565
N 0.4361 -243.7894 -28.7138
C 20.3626 -186.0096 44.7362
O 13.5211 244.7611 178.9451
H -301.9232 402.7531 106.2231
H -246.5301 168.0481 -63.3598
N -81.5917 179.7115 -405.9930
N -14.8024 444.9297 19.1514
F -41.8640 22.5624 202.2129
H 42.5415 54.5502 154.7536
O 655.7429 -190.8807 -124.9135
F -147.3207 -86.0308 -33.1933
N -98.6890 -169.0374 180.5111
N -595.8898 -540.2692 452.6292
C 665.2923 297.2596 559.6221
F 310.1032 -120.0309 -2.5801
O 9.2753 314.7960 -0.4103
N 194.6846 9.9366 -67.5620
O 422.6254 109.6500 -488.7429
N -62.5154 -83.1873 -194.6444
O -727.1218 -338.5215 -250.7630
C 359.1031 -34.3316 -134.9419
O -633.2823 120.9499 22.7348
19

F -163.1264 39.0416 85.2166
F -83.8125 39.0566 43.4051
H -57.9838 32.9195 -1.7844
C -14.2405 25.6096 -43.9116
H 61.6952 5.2861 -97.0412
H 90.8895 -17.0167 -52.8105
F 103.2934 -50.5335 -15.9774
O 75.5043 -63.9014 39.6869
C 23.5546 -68.2048 87.5167
H -160.5355 43.0905 98.2620
C -172.4643 52.5148 70.3292
H -140.1004 58.5974 45.5967
F -48.5026 68.8501 -69.5362
N 15.6395 71.7529 -126.7177
O 61.0318 53.6957 -170.7081
O 125.7720 6.7737 -123.8732
N 125.6565 -52.1347 -41.2843
C 120.6403 -102.4260 93.9599
H 37.0889 -142.9713 179.6714
21

C -158.0540 -76.2302 172.1945
F -81.8697 -50.7257 112.7457
F -27.3600 -20.9744 67.0358
C 72.8867 2.3748 32.7622
H 139.1023 10.2220 -20.9883
O 125.1627 51.0318 -45.4413
C 51.2038 61.7570 -90.7989
O -54.3943 46.7395 -140.8880
C -117.0525 -15.2624 -133.2081
N -161.3640 -100.3849 212.2374
O -134.9456 -78.3689 191.2944
H -121.0298 -37.2060 160.9041
H 32.6934 30.5682 31.8691
N 131.9936 -6.3487 -4.9801
N 245.2625 -33.2103 -72.4270
O 358.6198 -115.4869 -64.3853
N 321.6831 -141.1643 -46.6669
C 138.3243 -51.8344 55.9181
N -155.6361 78.2091 71.3519
C -438.4388 367.5297 -119.3378
H -166.7876 78.7651 -369.1913
19

C -46.0685 49.7583 -23.8592
C -28.6462 30.7101 -12.7366
C -21.7578 21.2135 -7.1883
C -7.3536 7.4097 1.6880
C 11.8001 -10.9327 9.0680
C 27.2670 -27.9210 14.2193
C 34.3891 -35.8149 12.8638
C 30.5508 -30.6158 9.5615
N 16.8012 -15.4748 3.4402
H -49.1699 55.4103 -26.2508
H -53.2671 54.0632 -25.8468
H -50.3043 50.8028 -22.6875
H -29.2673 27.9983 -6.7794
H -12.3054 8.8403 2.4437
H 7.0969 -7.6682 9.9249
H 31.6316 -31.0353 18.2696
H 47.3768 -52.6602 19.1199
H 51.9303 -55.8584 17.9561
H 39.2962 -38.2251 6.7938
16

F 18.9913 12.3416 35.6887
C 10.1482 7.3775 18.4633
O 5.7601 4.7958 5.5615
N -4.7789 -5.6268 -8.3763
F -9.5285 -9.1432 -18.8991
N -10.1829 -5.0332 -24.3106
N -12.6225 -5.6861 -20.1216
N -8.0706 -3.6003 -10.3830
O -2.1183 0.5544 11.7557
N 19.6074 13.9749 42.3379
H 18.7535 13.2067 36.1304
H 14.3133 15.2712 33.7301
H -3.6793 -0.7501 -3.3444
O -7.7974 -7.9364 -28.0349
H -10.5001 -16.0678 -34.0674
H -18.2952 -13.6782 -36.1303
19

O 49.8873 121.4236 -42.0900
F 30.0125 74.8355 -18.3667
H 40.7395 70.8776 -2.0918
C 52.3845 41.7683 -16.6269
F 15.8872 -10.1601 -9.1191
O -19.7253 -72.5748 -7.1519
F -55.9706 -113.9237 17.1081
C -92.2442 -118.5128 23.1413
H -83.2690 -80.1766 34.0126
F 43.2441 144.5448 11.0924
C 54.7856 169.2437 13.4130
C 63.1677 156.5894 21.1213
H 92.5959 129.5659 -19.0509
N 116.5163 92.6164 -37.1366
N 82.7557 29.2197 -37.7723
N 4.8209 -73.1625 -23.6657
N -98.2161 -172.5294 -11.1552
C -150.4696 -214.7764 53.3201
F -146.9024 -174.8685 51.0183
18

F -34.6430 -179.0027 113.0492
O -18.4926 -101.6363 64.0252
O -20.1834 -71.3414 31.6513
H -5.9192 -10.4338 -1.3871
H 26.3789 67.2304 -45.8496
H 28.4637 114.3578 -54.6068
F 19.6262 118.0352 -61.4306
C 23.0309 95.5986 -47.9119
H 13.4658 23.4090 -10.1114
H -32.6855 -194.6153 123.0953
N -47.7305 -189.2684 119.1734
H -39.9054 -172.1449 108.0998
F -26.1231 -69.1832 32.2651
C -4.7244 1.1029 -19.7600
N 21.3643 88.1029 -54.9009
C 32.8213 145.0123 -107.1828
N 37.5664 184.4829 -107.3527
C 27.6894 150.2940 -80.8654
16

N -11.1581 -19.3753 83.0122
N -2.7119 -10.1379 48.2716
F -7.4409 -4.4884 11.7761
C 5.3014 -5.4501 -12.8402
H -1.2902 -7.5177 -38.3533
H 1.6112 23.8857 -54.6998
N 8.7396 17.1451 -49.6931
C 11.5384 4.2058 -15.9684
C -5.6137 2.1196 3.6745
N -22.9966 -14.8037 88.3587
H 3.2868 -23.0343 76.3200
F -16.8702 -11.9223 84.1034
H -1.2285 3.4956 -0.8408
O -0.3683 17.0174 -68.0649
O 24.9591 14.8339 -83.9911
N 14.2420 14.0265 -71.0650
20

C 167.2666 -183.9731 -125.2925
F 110.9963 -121.0279 -73.7249
F 30.2346 -91.1746 2.6251
N -34.0882 -31.9650 33.0168
H -91.7417 39.6227 85.1171
F -121.1631 86.9508 86.2002
F -76.3858 116.6562 24.5682
C -19.7403 118.9173 -3.8315
H 42.2544 108.5012 -66.8680
N 189.7421 -198.3837 -139.4608
C 160.3796 -210.4480 -108.7885
C 100.1110 -225.3399 -47.0736
O -23.9709 -130.1988 70.2241
O -62.6610 -44.7704 101.3020
C -95.5523 33.8452 139.6897
O -126.0109 211.6950 98.0146
H -99.1122 351.2982 -16.6462
N -48.5631 339.9899 -7.0422
H 54.8593 192.0521 -109.9891
C -56.8545 -362.2471 57.9595
18

F -12.1705 -56.2607 111.5628
F -5.1647 -32.1684 63.7474
H -1.4887 -23.8605 31.9973
H -4.2989 -6.0878 -9.2896
H 7.1928 14.8237 -49.7522
H 8.6252 36.5777 -69.7139
H 11.7034 31.2709 -66.8374
O 4.2154 29.7862 -39.2155
C -4.0495 5.8799 6.6754
N -10.9333 -59.1305 128.1195
C -5.5069 -58.7292 116.9736
O -12.5989 -50.0828 107.3417
F -3.0472 -21.5874 27.5603
N -3.0596 -8.6005 -25.6258
O 3.3434 19.0510 -76.2792
N 10.6296 50.3641 -101.6053
N 8.5930 72.9697 -91.7913
C 8.0155 55.7845 -63.8677
17

N -20.2487 -39.2805 -47.4409
C -13.4369 -21.6895 -27.8347
C -5.7175 -12.1222 -16.7550
N 7.0543 4.5523 6.5341
C 14.1917 20.0553 24.7971
O 19.5808 25.8583 32.0551
F 11.5519 24.3204 26.8871
F 3.1445 13.6487 16.2905
C 0.7806 -0.0202 0.2451
O -24.1998 -39.0479 -44.7554
N -31.0212 -38.9758 -46.7083
N -22.5330 -35.4999 -42.2738
H -2.4615 -5.5969 -11.9286
O 11.2425 14.7264 10.1164
N 14.9222 26.7039 36.2186
O 15.1332 27.4534 45.3283
N 22.0167 34.9143 39.2244
20

F -91.4969 -187.3542 -134.3624
F -59.7006 -117.6491 -78.6798
F -43.7065 -69.6219 -10.7399
N -10.3227 -20.1552 49.0144
H 33.8614 48.9718 95.0980
H 52.4871 109.0487 92.9817
F 70.9836 129.4001 35.4581
O 56.5033 106.0980 -13.5923
H 41.9719 48.0063 -73.8162
O -101.4974 -195.1770 -147.1268
F -106.5922 -201.6805 -117.9312
C -125.5971 -184.1229 -68.0579
F -63.2181 -82.6583 59.8555
O -30.7751 -26.4073 146.9699
O 32.1484 43.4053 151.2276
O 93.5231 139.2268 124.3773
O 128.6155 204.5158 21.5039
H 118.8558 187.8479 -51.3673
H 82.9658 127.2533 -136.4974
H -79.0094 -58.9476 55.6846
23

O -326.8922 -153.9378 150.8303
F -141.0975 -162.7739 -62.2131
H -43.3600 -250.7360 -115.7304
C 205.7028 -135.4602 -61.3345
C 154.7508 13.9917 -103.3064
C 112.0847 172.3849 -87.0989
C 61.1523 158.5173 55.6870
H 52.8395 212.4968 -41.6183
C 0.3822 221.3682 -117.0307
F -491.1999 -73.1714 374.5519
F -229.8233 -64.8590 315.5918
F -457.2430 -261.8368 17.1776
N 300.6765 -66.1840 -208.0222
N 666.3765 185.1222 -75.9994
O 289.5010 -47.9794 -157.6741
C 76.8665 -338.3199 84.8535
O -92.8538 49.3990 105.8512
F 36.4947 -76.2459 -366.9413
C 239.0298 980.2155 -133.7099
F 9.6450 -236.6830 -184.1541
C -294.1841 19.6009 409.7050
N -360.0343 -466.8371 416.2700
H 231.1859 321.9279 -215.6850
9

C -0.4756 -0.5113 1.8008
C -0.3090 -0.0474 1.1834
C 0.7836 0.1195 1.3141
C 0.2185 -0.2655 0.1178
C 1.1924 0.0572 -1.5087
C 1.2068 0.7159 -1.7232
O -0.3091 0.0525 -1.2962
C -0.5413 0.6420 -0.9021
H -1.7663 -0.7630 1.0140
10

O 3.3754 -4.5607 -0.4858
C 2.5128 -3.5998 0.2881
C 0.4919 -1.7403 0.4989
N 1.3531 0.8729 0.7402
C -2.2697 2.5033 -0.2641
N -2.2050 4.1871 -0.8148
N -2.5232 3.1821 -0.7453
C -2.4101 2.6074 0.7130
C -1.1812 1.8345 0.4632
H 2.8561 -5.2865 -0.3934
16

N -0.5572 -26.6024 15.2012
C -0.6560 -15.0751 6.5063
C -1.2816 -2.9311 -1.7937
O 1.1533 9.4101 -5.4462
C 0.8720 11.9327 -8.0839
C 0.7052 12.1964 -7.4054
F -0.9246 13.8547 -3.4656
C -4.0390 8.8317 -2.3170
H -2.8403 -4.1076 3.9658
H -0.0390 -28.2666 14.7288
H 0.5386 -22.9276 16.3640
C -0.5885 -21.6810 8.9207
H 0.1589 3.2377 -3.1758
H -1.0754 15.2115 -12.7709
H -0.7467 26.4208 -10.9939
N 9.3202 20.4957 -10.2345
19

F 144.9228 -20.8965 -87.7819
N 94.8729 -14.0779 -57.4778
H 66.7093 -16.0613 -10.7492
N 31.7509 -8.6016 16.0080
H -36.0889 -7.6425 57.8966
N -87.2181 4.7644 66.4192
F -103.8654 22.5157 41.2725
C -101.8353 24.8031 9.2105
O -51.5332 32.1706 -29.2850
O 157.3344 -21.3864 -98.7135
F 161.8270 -24.2778 -88.4467
C 149.9948 -16.8193 -66.9441
F 95.0184 -18.7498 10.5587
O 47.1698 -32.1108 60.6886
O -31.3892 -30.2680 94.7637
O -106.8696 -8.2605 93.5154
C -165.4585 32.1988 53.9219
C -168.2183 48.8252 7.7559
F -97.1236 53.8746 -72.6129
18

O 71.3192 -7.7458 31.1739
C 40.8611 -6.8721 11.6911
C 25.3083 -6.9510 3.5508
N -3.4993 -10.6591 -7.5329
C -27.4681 -11.4383 -18.7834
C -36.6571 8.6635 -28.1769
C -41.7680 9.8054 -22.0453
C -34.0002 14.5441 -4.6510
C -5.1635 10.4156 12.1879
F 71.1972 -6.6074 43.6372
F 74.0243 -14.6199 33.6290
H 64.9639 -12.9322 36.2393
C 17.3833 -11.3512 9.5223
O -10.7444 -21.6364 -11.1410
H -44.0387 -15.1460 -26.5237
N -57.7422 8.6783 -32.2483
F -60.5333 35.8831 -18.4380
H -43.4423 37.9694 -12.0909
19

N 125.6485 -89.7777 -105.0712
O 81.1856 -56.4003 -72.1673
N 59.6089 -47.3469 -60.1934
H 24.8671 -23.5023 -30.0275
O -28.9302 9.5229 16.1802
C -75.3773 44.0862 64.0861
O -99.4057 68.1139 93.5387
N -88.7994 72.7655 91.6469
N -46.0167 50.3341 54.3750
H 136.0849 -96.4166 -112.7797
F 144.1532 -96.4801 -125.9099
F 133.9868 -97.1963 -128.6784
C 82.1702 -58.5599 -102.9165
O 50.0344 -51.2230 -68.7748
N -8.4804 -16.5746 -10.1716
O -78.9238 43.9850 66.7001
O -135.3994 102.4372 133.1099
H -159.1653 128.8283 164.3418
O -117.2416 113.4044 132.7114
18

O 18.7236 -27.9866 89.1282
C 10.4608 -17.2744 50.6681
C 4.1322 -12.4006 24.9099
C -0.8346 -7.0632 -8.0004
H -5.6816 2.0286 -41.9176
C -6.8173 19.9305 -55.4173
C -10.4888 23.0673 -54.1212
C -8.0469 21.2536 -31.1081
C 2.9794 9.0626 3.9750
O 15.5826 -29.9680 100.2523
C 12.5416 -33.9275 88.2682
O 16.6118 -33.2261 82.2227
C -0.5077 -16.4047 23.4660
N -8.0384 -14.6027 -19.8505
H -14.4416 -0.0018 -59.6231
H -7.4063 28.9996 -75.9262
H -16.5869 43.6693 -71.2383
C -2.1820 44.8441 -45.6878
20

F 116.3081 193.0063 -46.4851
F 74.6003 116.0451 -31.9387
H 48.7496 78.4893 -15.9975
H 4.1202 25.6143 9.4472
H -41.2850 -48.5798 37.4411
C -74.5661 -115.3789 42.9530
F -79.2771 -144.1767 18.5518
C -61.1501 -121.4956 2.9741
N -25.4045 -42.5597 -1.6854
N 131.5543 210.9255 -51.6282
F 119.9179 210.0025 -57.9729
N 102.9801 182.2426 -70.1074
H 39.1704 83.9760 -37.7776
O 29.3428 39.6179 8.9166
O -19.8665 -11.4841 104.2591
N -63.7911 -71.7466 173.2554
N -104.4558 -128.4215 162.7184
C -103.5684 -169.7287 71.0532
O -59.3135 -152.5993 -73.7791
N -34.0655 -133.7487 -244.1977
17

F -22.4537 -53.5004 83.7494
O -13.9025 -32.6837 53.8445
H -12.5008 -14.1643 31.3096
C 4.4467 4.4781 -11.3873
H 9.9468 14.4070 -47.5427
C 17.6920 38.2168 -50.3923
F 16.9347 39.7081 -50.1091
C 3.9880 27.6589 -27.5277
C -3.4581 6.7750 -3.2119
H -26.9511 -58.8455 90.6044
C -24.6095 -61.7374 77.9051
H -15.9496 -60.6765 74.5262
F 1.5164 -14.6664 11.8500
O 8.5920 16.4183 -33.8399
C 12.4896 36.0506 -55.6925
F 29.2218 60.7729 -74.2527
C 14.9971 51.7886 -69.8334
15

F 14.6941 -3.5515 10.7629
C 8.0501 -0.6517 3.6901
C 1.9288 -0.2502 -1.6123
O -4.1875 -0.1317 -4.6335
C -10.8743 1.1169 -6.1192
N -10.9831 1.6959 -6.9381
O -11.6665 0.5641 -5.3678
C -5.3096 -0.5204 -5.6451
H 4.4615 -2.5180 0.9065
H 16.9900 -5.5371 13.2680
H 18.0190 -1.4626 11.0181
H 11.6983 2.2668 7.3327
H -5.1273 3.7412 -1.9785
H -13.7073 1.3749 -5.6222
H -13.9861 3.8633 -9.0615
16

F -8.1382 5.9332 -63.7999
H -7.6432 4.5831 -36.1180
C -4.0857 1.5753 -9.6384
O 5.9358 -5.0513 16.9367
H 5.5744 -8.7452 39.7334
N 6.1002 -4.2748 42.4562
C 3.1176 -0.3558 30.1631
N 0.8260 -3.9815 17.0687
H -3.3902 -7.2716 -2.0916
O -9.2386 12.5569 -64.3304
H -8.5310 3.5793 -61.6389
H -12.3482 3.5911 -44.0189
H 4.2452 -5.7579 -1.2370
N 5.6936 3.5744 33.9117
O 12.4533 3.0887 53.0994
O 9.4288 -3.0436 49.5039
22

O -91.0546 -197.4622 -43.6668
C -39.2485 -126.6229 -4.2185
O -15.5701 -59.7367 3.0732
N 72.1256 48.8991 26.7021
O 59.9173 131.2283 67.1195
O 77.1048 171.8273 84.0705
F 0.7888 60.0160 -18.3379
F -58.7209 -21.6387 -57.4207
H -195.1837 -97.4336 -92.6490
N -113.4001 -233.7278 -24.9895
N 18.8707 -152.5260 65.5312
H 106.1970 -147.9758 255.9195
C 134.7977 97.4649 60.4672
O 58.3527 209.6611 -200.6638
N -36.9557 135.9585 -238.6291
F -221.5728 39.1873 -331.5944
N -224.8699 146.6863 -235.8721
O -9.8154 370.8109 229.9958
F 259.7369 -61.8941 233.2863
O 432.8423 -273.6328 516.7116
H -295.5093 -128.3345 -15.8309
O 81.1672 89.2454 -279.0043
19

H -97.2346 189.4801 -79.8651
H -60.3666 120.2030 -48.6590
F -40.7637 87.5067 -28.6444
H -8.0519 33.1613 1.5828
O 29.6170 -42.3846 31.1230
N 54.6135 -105.9030 48.7385
C 64.6656 -138.3848 46.7359
C 52.9798 -127.6772 33.4320
H 20.3448 -64.4288 6.3097
H -102.3193 204.2944 -90.6071
N -102.7849 207.9925 -82.7515
H -93.0533 192.8544 -70.2608
C -42.8437 103.3713 -23.6762
O -13.1949 50.6801 6.0049
N 19.9673 -25.8734 38.6347
N 63.7451 -117.8902 68.5954
C 88.4802 -192.6025 70.2182
O 95.8049 -214.8102 57.1904
N 70.3948 -159.5891 15.8988
14

C -21.6037 -3.7193 4.2112
C -8.1130 -1.3251 -0.0081
C 2.8353 1.9793 -0.2198
O 8.7725 0.7368 0.1197
H 10.4814 0.1247 -0.1028
C 9.4565 -0.9921 -0.6807
O 6.0874 -0.3457 -0.2210
C 6.0161 1.6439 -1.0044
C 5.8093 -0.2302 -5.4883
H -23.8207 -6.4528 7.5184
H -22.7052 -0.7077 5.6200
H -17.9730 -8.8281 -1.7329
H 11.7007 8.4407 -8.9844
H 33.0563 9.6757 0.9731
21

N 59.6395 -49.6159 -378.2775
H 42.0060 -7.9961 -213.5077
F 35.0799 17.4936 18.6213
O 49.0143 19.7697 165.6260
H 15.9301 37.5040 304.2976
H -63.8584 -2.1790 280.9811
F -45.2877 3.1740 70.4086
N -90.2702 -4.5236 -112.7928
F -37.8011 42.0809 -351.8841
O 47.7891 -68.8979 -415.0379
F 63.7868 -40.8137 -242.2898
C 74.3153 2.7356 -142.4824
C 103.3267 76.5028 286.1725
O -28.2589 73.8000 544.8107
O -54.4819 -54.1877 508.1484
O -114.0458 -43.0160 345.7364
O -128.6164 13.6409 31.7379
H -85.2355 -145.4753 -278.6654
F 66.0703 -91.3402 -551.8729
H 33.8769 96.2189 251.2940
C 57.0209 125.1248 -121.0240
21

F -122.0256 12.2759 93.8142
F -65.0008 -7.3833 48.2713
F -55.6934 -27.8804 -33.1456
C 2.8656 -48.3514 -97.9440
O 67.3975 -52.7800 -164.6141
N 113.2031 -37.8445 -145.5483
F 96.7843 -9.2148 -50.0210
F 28.0880 64.9889 106.3123
C -99.0760 120.2531 292.8690
F -115.9552 8.0121 101.4133
C -116.8607 5.4199 75.8927
O -92.9652 -16.7493 20.6256
H -38.9137 -47.6085 -123.8820
N 26.5173 -61.1726 -212.1014
O 66.3158 -55.6867 -171.6280
O 79.2639 -58.0610 -112.1096
O 61.9831 -3.7970 -60.9124
N 113.6542 2.1219 -85.2949
F 111.9047 3.5110 22.4177
H 165.8367 -4.2660 -109.2510
N -227.3235 214.2127 604.8362
18

F -45.4564 2.8671 96.1785
H -18.5413 3.4428 59.1396
F -9.2234 2.2122 32.4484
C 8.7444 -0.7112 -2.3825
H 18.8727 -5.2744 -41.7817
N 24.5181 -0.1528 -63.7387
F 20.5379 -1.5370 -61.8105
N 9.8026 -1.5128 -44.1462
H -7.3674 1.7936 -8.7641
H -50.9203 4.5686 107.8623
C -39.3672 2.6403 103.3514
O -31.6012 2.0683 87.6478
H -1.1764 11.5749 31.1548
O 22.2243 8.5108 -9.5283
N 29.4219 -4.0329 -50.6686
H 32.4544 -10.4223 -83.6509
O 25.4887 -8.6543 -89.0233
N 11.5885 -7.3809 -62.2878
18

C -79.3784 134.1446 -13.4936
F -51.0453 89.2417 -16.4319
N -33.6694 67.1673 -18.4978
N 3.0796 6.6776 -2.4856
C 31.9412 -45.1872 7.3339
N 50.3613 -82.9504 -1.1647
N 58.9148 -108.6509 2.1544
C 38.7672 -83.4690 5.7260
C 15.3555 -35.9036 15.0384
F -86.6443 178.0929 -16.4239
C -95.5940 162.7846 -8.1584
H -80.1464 159.2567 4.8687
H -45.0350 63.7619 0.9093
C 4.2195 9.5194 -8.0964
C 31.9784 -60.6905 -6.9851
O 72.8350 -127.5904 11.4036
C 80.8765 -164.6962 11.9919
C 83.1838 -161.5086 32.3113
18

C -128.1821 -10.3097 145.3342
F -68.8752 -1.1444 85.5874
H -42.8484 1.6026 46.0507
O 5.7643 12.8070 -4.5347
H 45.0460 4.2972 -62.5018
N 77.0485 5.8858 -93.8785
N 78.3746 0.0642 -91.1316
O 63.5970 -10.9747 -68.3372
C 15.9002 -16.2536 -3.8278
H -138.2657 -4.7563 158.8020
F -138.5557 -8.7189 155.1391
H -112.7938 -6.5962 145.9234
F -39.7527 2.4888 55.7433
N -4.0452 18.8053 -13.6777
O 58.3616 15.8435 -91.9974
O 111.6479 10.8370 -114.1650
N 113.4815 0.8986 -142.4968
C 104.0971 -14.7760 -106.0314
16

N 33.0206 -22.0965 -7.7962
C 19.1268 -13.3398 -6.3504
C 7.2896 -4.7738 -5.0530
F -5.1709 3.8631 0.8852
F -23.3107 15.1569 3.0599
N -28.0034 17.5962 2.7788
O -16.3141 14.9222 4.9828
F -7.6090 6.3573 2.7728
C 4.7163 -1.5395 -3.8496
F 38.5386 -24.2118 -5.4564
H 33.8189 -16.3960 -0.2894
H 24.7186 -17.8391 -11.7336
H -0.1670 3.1427 -2.1512
H -16.5440 9.2027 7.6885
O -33.1595 12.1922 11.2957
H -30.9508 17.7631 9.2161
17

F -49.1834 -81.1334 -68.3713
N -34.6086 -44.6305 -36.8510
C -12.6717 -23.9221 -29.4187
N 8.8172 12.3842 4.1368
F 27.6524 48.5519 25.2394
O 38.3778 57.1059 39.3247
F 29.4343 50.9359 34.6144
F 18.3352 24.1070 21.1733
H 6.0702 -5.6830 4.3540
O -63.0507 -76.7449 -55.9159
N -66.7798 -79.5577 -61.2367
H -57.0482 -77.1416 -45.7679
H -10.1452 -18.8445 -6.7157
O 26.4391 17.7900 27.3621
N 43.4133 52.1939 49.1349
O 44.9606 71.1971 52.7719
N 49.9874 73.3919 46.1658
16

C -100.1678 6.8661 43.0133
F -51.2051 7.0105 24.4152
C -17.9454 2.1267 11.3785
O 31.3967 -5.6982 -10.6594
C 43.2848 -16.4029 -19.3578
F 58.4360 -4.3899 -33.1935
N 53.6889 -6.4748 -23.7591
C 37.4388 -4.6790 -19.4017
C 6.8066 -7.8650 -21.0266
H -109.4153 0.2239 53.6979
F -98.8471 7.9952 37.9418
F -101.2452 -7.6871 26.7856
C -6.6246 35.6987 -34.9777
O 79.5426 24.3557 -1.7124
O 91.7288 -19.6280 -8.6950
C 83.1272 -11.4518 -24.4493
17

F 48.7419 -51.5908 150.4478
C 26.6177 -27.9039 78.1645
O 17.3450 -6.4248 46.0440
C 1.4457 -4.9195 -8.5982
N -25.5191 5.9116 -91.5531
C -31.0225 23.3966 -108.4091
C -48.8637 29.6930 -93.9363
C -28.6938 23.7394 -58.8979
C -5.2251 13.8469 -0.0492
H 46.9456 -46.8177 169.8421
C 51.8637 -42.9808 146.7859
H 54.6101 -19.3798 133.0515
F 19.3444 -20.6408 24.9616
O -14.1949 10.0780 -35.8877
O -31.5262 27.1571 -96.1771
N -30.3762 45.2958 -133.1777
C -51.4924 41.5398 -122.6111
20

F 84.1736 36.8513 -191.6379
N 51.1839 24.8433 -120.4160
O 32.6055 35.6957 -64.7259
N 13.5191 41.2141 18.3017
O -15.7553 14.7989 98.6167
C -45.3576 -6.9439 137.5739
F -73.3368 -47.6295 111.1718
C -61.5760 -64.9364 66.7896
H 8.9396 -61.3172 5.8570
N 98.2144 33.6134 -212.0316
C 44.7865 53.8721 -218.9549
F -10.1417 66.1040 -232.3701
F -14.0467 74.6475 -113.9253
O 55.1246 71.8265 41.3699
C 94.7009 57.1607 190.2140
F 162.5558 -3.6488 310.4360
C 177.6652 -92.6265 305.9171
C 32.4407 -123.9762 180.5888
O -116.8806 -89.0853 -18.2904
F -518.8151 -20.4638 -294.4843
17

C -46.0348 8.5887 39.0447
H -24.1865 6.3569 23.9048
C -17.2451 0.9200 15.6139
O 1.0210 -1.0915 -7.3617
O 17.2516 -4.6004 -20.4032
N 26.3911 -6.3258 -17.2905
C 32.3213 -2.9853 -21.6588
F 22.5347 -5.2886 -21.9302
C 3.8356 3.7010 -0.3402
H -48.5898 5.7412 47.4164
C -50.3901 11.8941 42.4656
H -46.8836 8.9228 28.6625
H -5.5676 2.9423 10.4976
O 8.7686 -6.7802 -9.7676
C 29.7480 3.9216 -29.8458
O 49.4076 -9.3172 -41.8823
O 47.6180 -16.5998 -37.1252
13

C 6.1823 -9.2506 -1.5446
C 3.7758 -4.5889 -1.5121
C 2.8101 -3.2604 -1.9043
N 0.7667 1.7194 1.2351
C -3.7469 5.3286 1.3621
O -7.1500 8.4541 1.5094
O -9.6129 9.9487 0.3888
F -7.2197 8.8943 0.8809
O -3.2238 6.0275 -1.4764
H 7.7350 -10.2038 -1.0675
H 6.9112 -8.4899 1.9441
H 2.9038 -6.3164 1.8820
H -0.1316 1.7374 -1.6975
21

F 157.7269 -119.8779 171.4725
F 93.2563 -94.4103 109.3543
O 36.2824 -81.4779 87.1798
C -43.6109 -36.7586 29.4003
C -93.6458 42.4091 -41.4860
N -96.1980 98.8455 -133.6739
F -63.5280 98.3974 -179.4942
O -14.4765 79.0243 -114.5487
O 25.0341 45.5950 47.5896
N 189.9742 -126.7610 183.7092
N 163.3680 -156.8562 167.2425
C 107.7913 -211.0375 128.8131
F 10.6147 -173.8760 73.3985
O -33.2040 -28.4948 79.8344
O -111.1382 159.3011 148.7465
N -214.4155 359.9487 125.6815
N -252.8796 473.2984 -36.9781
C -156.9956 342.0432 -289.0785
F 52.9946 34.1522 -417.9919
C 244.7568 -606.2666 -500.8466
C -1.7072 -97.1982 361.6758
18

F -8.5983 17.0307 -171.4057
N -8.2749 10.8887 -103.0587
H 1.1505 11.7095 -50.2278
N 9.1106 5.6860 10.8507
H 8.8119 -1.7373 71.6872
H 14.8556 -10.2955 98.0196
F 9.2439 -21.2517 92.4878
C -7.9624 -19.0633 66.1134
F -5.1193 -7.4267 1.5461
O -10.5840 27.4190 -171.5652
F -15.9568 27.8920 -170.1955
C -17.6234 29.6547 -142.5839
N 5.7944 21.8521 -35.1588
O 15.8982 12.3736 34.9919
O 5.0218 0.6216 96.5167
O 11.0613 -16.9995 143.3144
O -2.6659 -45.0596 132.3986
C -4.1633 -43.2944 96.2690
23

N 63.3263 281.2884 237.2080
F -39.6537 101.7520 135.6068
F 65.0400 72.1546 64.9282
C 164.7378 -127.3466 -245.9337
F 189.5574 -150.1890 -289.6622
C 139.1469 -217.1790 27.8734
F 24.8281 32.7827 184.6955
F -183.0106 131.8622 41.8141
C -160.6079 272.2283 -75.1119
N 44.4450 290.3866 323.1938
N -125.6409 -9.9383 -120.8590
H 7.7902 -348.0398 -346.3927
H -217.2686 -340.1729 -113.7452
O -590.6983 62.6338 -162.0876
O -156.5986 -248.9418 -578.9893
O -396.1615 148.4580 233.4920
N 76.3980 295.0061 288.8274
O 302.0458 211.8335 130.9845
F 699.3576 -606.9509 60.5695
C 586.0024 -55.9356 45.7619
O -614.6423 556.5143 -98.8936
N -118.6203 -244.1540 267.5573
O 240.2272 -108.0526 -10.8371
19

F 125.0178 10.8846 -22.4809
N 78.4873 2.1058 -14.6882
H 49.1580 -2.5479 -7.1654
N 7.5870 -3.7082 1.5144
H -43.1847 -10.1395 12.0842
N -77.1796 -7.5808 15.5092
F -89.5186 -3.8269 9.5421
O -70.1654 3.8204 5.5050
H -13.9096 12.5641 2.4696
N 140.5942 10.7062 -21.8291
F 138.8291 7.9392 -25.4663
N 118.6966 4.1555 -24.1485
F 52.7805 -6.4563 -8.2289
N 10.0780 -22.2278 6.6371
O -42.6547 -23.7105 20.0270
O -93.0230 -12.1507 28.9665
H -122.2792 3.7577 21.9989
N -107.7055 15.8340 12.2344
H -61.6081 20.5811 -12.4810
16

F -28.4371 -9.7314 -34.5322
F -17.1279 -3.6872 -18.0368
H -3.7632 -1.9963 -2.7254
N 8.6155 -0.2195 9.9263
C 15.8350 4.4297 19.4477
N 17.7621 9.7514 19.1878
O 14.5916 6.0480 13.3602
F 8.6063 -1.1976 5.1528
O -0.6076 -6.8260 -1.8425
O -32.8699 -10.0411 -31.2069
F -30.7581 -10.9341 -29.4761
H -26.6060 -7.4414 -24.6839
H 4.0000 3.5480 0.0910
O 22.4746 7.0002 26.3894
H 25.5037 11.3951 28.1633
O 22.7809 9.9022 20.7854
18

F -41.1578 -39.0535 -56.3046
C -25.9480 -19.3467 -31.5926
C -20.8979 -12.3711 -24.1961
H -2.1207 0.6677 0.6963
O 14.8939 13.2004 21.4987
O 28.0389 26.0019 35.2014
O 32.4853 28.4865 35.8117
N 27.9276 16.9436 21.8925
O 17.7590 2.1944 5.7137
O -44.8970 -40.9333 -64.7570
F -45.4930 -44.4868 -59.2378
O -49.3492 -39.5877 -49.3640
N -23.8945 -9.1546 -20.7470
O -6.1122 -1.0187 19.2080
N 9.5608 24.4743 30.5472
C 31.5869 30.7827 51.2273
C 50.2293 36.3252 48.3694
N 47.3886 26.8756 36.0328
19

F -16.5562 177.6410 87.1281
O -1.7683 112.8339 61.6459
F -27.0334 91.3942 111.0075
C -6.5642 41.5462 89.9556
H -12.4310 -44.0880 46.0144
C 6.9388 -109.1705 -37.4223
F 26.6960 -141.3967 -132.8494
C 24.8891 -127.8264 -171.5774
N 34.6636 -52.9831 -153.1850
F -10.5765 206.9200 82.2838
H -28.0705 198.7564 130.3879
O -16.7350 209.6826 160.1635
C -28.7007 114.8833 212.0659
O -39.4874 50.9117 224.8804
C -35.8029 -47.7663 145.0232
N -39.6980 -142.5674 20.1887
N -4.2666 -200.0806 -192.4819
C 59.8224 -224.1842 -300.0050
H 114.6807 -114.5062 -383.2238
19

F -71.5057 -126.3340 -133.5171
F -40.6668 -77.7980 -92.0091
C -33.0421 -59.4213 -87.2677
O -4.4175 -24.8523 -51.0839
H 18.6041 23.0270 2.5457
H 39.5606 67.9433 73.2689
N 45.4148 94.8872 127.4634
N 36.3358 87.6310 134.9110
C 16.5157 42.5154 93.0427
H -72.2449 -140.4525 -139.7370
F -78.4299 -135.7037 -162.4729
O -75.9595 -128.2905 -167.3280
F -39.0774 -74.7331 -149.6138
N -10.1237 -34.1470 -116.9398
O 28.5686 19.9134 -46.8107
H 61.0132 81.5768 60.2272
O 76.4678 129.9720 175.8893
N 64.0252 142.7863 245.7292
N 38.9617 111.4801 233.7025
23

F -11.5966 -126.4200 253.1691
F 27.7580 -92.1701 172.6932
C -54.7103 18.4379 198.8147
O -139.3253 64.8457 -97.6651
C -108.0509 8.0270 -141.4919
F -96.1478 -263.5067 -201.6705
C 81.1745 19.9556 -170.3214
C 160.2516 66.6361 44.2211
C 218.9005 236.6592 399.9079
C 18.4380 46.5550 192.6853
C -37.5560 179.4792 -267.5320
H 38.0660 238.8888 -262.9326
N -61.9291 115.6914 167.4224
H -193.9676 -227.0783 345.0721
O 41.7088 78.5559 188.3584
O -277.8017 -166.5563 109.1304
F -123.1966 -253.4752 -511.7437
H -511.2965 199.7844 -23.5084
H 102.0292 -24.1736 393.8391
C 456.9676 -241.9509 -422.9573
O 624.5828 -335.4096 -48.5055
H -240.6143 217.6859 -442.5690
O 86.3157 239.5386 125.5839
18

F -76.6087 -73.5377 -4.9525
F -47.6666 -43.4187 -1.2447
H -33.2793 -25.5116 2.4866
H -3.2793 -0.2609 -4.0882
O 29.1455 24.0930 -0.8770
H 46.1286 46.2161 1.3906
F 52.4556 54.2247 1.7854
C 44.9446 34.2878 1.2643
N 15.6554 2.6160 8.9639
C -79.3224 -81.7078 -5.0816
F -84.6055 -80.7183 -3.4721
N -77.2624 -77.7609 -3.0760
N -27.6154 -23.4539 -10.5469
O 0.6458 5.0780 1.7014
N 36.3279 45.4115 -12.6314
C 61.9008 62.9146 11.8561
C 75.3297 78.3944 3.1090
H 67.1058 53.1337 13.4131
17

F -7.3065 -36.5220 127.2103
C -3.9415 -17.4404 75.9241
O -4.7473 -5.4304 39.3493
C 5.8338 4.5147 -9.5599
H -0.5502 8.0638 -72.7044
H 0.0032 22.0964 -89.6708
F -4.4866 26.8034 -81.8474
F -0.4953 7.8867 -42.2312
C 6.0288 8.4616 10.3976
H -9.3589 -32.1549 138.8204
C -10.1070 -38.6408 113.7145
F -12.7895 -26.3107 111.4288
F -1.1678 -6.9639 19.7219
O 5.9007 14.2911 -44.4529
O 15.1807 13.4962 -91.2722
H 24.1356 30.4916 -102.7975
C -2.1320 27.3574 -102.0304
18

N 11.0960 -78.1122 -44.2350
O 7.9451 -44.6618 -29.4825
N -1.7301 -28.5267 -17.8723
H 3.1387 0.0478 2.6796
O -2.1971 31.5286 21.3094
N -5.1585 46.8145 31.8337
F -2.6760 51.1367 26.5412
N -4.6940 35.4631 15.2603
N -0.9834 9.3500 -1.7351
F 7.7879 -85.4953 -50.7146
N 3.9295 -82.2313 -48.1099
H 1.6992 -71.8088 -40.6666
H -1.3103 -25.8813 -11.0637
H -3.3250 2.1513 16.6579
N -0.9618 35.4841 32.7321
O -8.7181 62.2910 37.9900
O -3.1526 76.0077 32.9084
F -0.6896 66.4425 25.9672
16

N -10.2452 -27.4650 79.5342
N -3.0306 -16.2898 47.8633
O -8.5742 -6.5310 13.8663
C 5.7409 -4.5616 -12.4039
H -0.5068 -7.6942 -36.1808
H 2.5555 26.1293 -53.3452
N 10.2514 24.6240 -50.9886
C 7.0919 10.8639 -16.3122
C -14.0598 0.4965 11.7015
H -15.2965 -21.9121 82.7660
C 2.8923 -25.0029 65.5866
F -14.5472 -21.7321 69.3893
F -1.6229 1.8350 5.6541
O 2.6557 22.1885 -61.7593
O 22.0382 24.1548 -79.1344
N 14.6573 20.8966 -66.2370
21

F 362.0831 -13.5032 73.1001
C 209.8368 -3.7310 15.9274
C 101.0750 -39.3286 0.7397
F -58.6990 -80.1866 -55.2091
F -185.7430 -108.8897 -46.7016
C -270.7339 -82.3024 32.0008
F -252.9649 -14.8076 14.3822
F -117.8072 163.2372 0.7332
N 82.5125 267.5073 -44.3380
C 374.3845 -33.2326 98.3257
F 343.5453 -67.4781 84.5198
H 252.8137 -82.0288 73.9666
F 16.1823 -49.5704 -111.0225
O -17.0998 -112.5042 -163.3609
N -125.9826 -138.1349 -202.1149
C -139.9059 -94.5998 -171.7296
O -191.7052 96.6503 58.6636
H -254.0762 68.1270 297.8391
F -196.9799 112.8712 369.3012
F -202.5034 -242.4593 88.6807
O 271.7679 454.3641 -413.7034
17

F 20.3663 73.9269 -32.5192
F 16.9228 43.1631 -22.6672
H 8.7546 19.2870 -9.2388
C 0.7047 -4.3883 4.6265
C -9.6318 -37.8651 15.8049
N -16.7191 -49.4518 23.0063
F -17.7188 -36.7427 21.2563
C -12.0755 -25.0870 14.2482
C -8.1069 -7.3092 8.2323
F 20.2844 85.3083 -33.4930
N 16.9435 69.3334 -35.4493
H 18.5229 50.8170 -26.2050
H 14.5343 20.5635 5.8817
O 2.4953 -24.7889 7.3797
H -10.9168 -51.9682 13.9003
N -12.9089 -68.2291 22.7420
O -31.4510 -56.5688 22.4945
17

O 76.8123 -3.9019 43.4174
C 37.8172 -6.1009 20.1279
C 20.5389 0.2867 13.5908
N -2.5980 -0.1365 -5.7140
F -36.1766 0.3965 -26.1317
N -44.6708 3.1815 -24.8022
O -48.4377 3.4496 -25.0733
F -39.0408 6.9778 -24.3354
H 2.1724 8.8847 2.2171
F 82.6251 -10.4488 49.8792
F 77.3708 -5.2563 47.1759
N 55.8431 -5.5739 36.4138
N 17.1460 -3.7936 -1.8327
C -20.8919 -2.1845 -15.8524
C -50.6610 3.2041 -26.5205
C -58.3135 4.9907 -36.4158
F -69.5355 6.0249 -26.1443
18

C -72.2606 -49.0969 64.5026
F -44.4394 -30.3715 39.8243
H -27.9577 -23.4445 27.2948
C -3.9006 -1.4264 -1.6461
H 29.4701 13.0738 -32.4338
H 44.8832 34.0094 -38.4468
F 48.8678 40.5768 -39.4196
O 37.8267 28.2375 -27.0383
H 12.3002 4.2722 2.2063
N -79.1256 -57.6578 72.1393
H -81.4106 -59.5711 66.6783
H -70.8411 -52.0062 61.1630
F -28.4442 -19.5549 17.4109
N 4.0710 4.6275 -9.2396
N 31.5124 27.5245 -46.8296
O 68.3031 41.2891 -59.8403
N 69.8802 55.8981 -65.2848
C 61.2651 43.6203 -31.0403
15

N -41.8046 9.8572 -22.0509
C -25.2650 11.9935 -13.6222
C -15.7182 11.3642 -8.9964
O 1.3326 4.5377 7.9999
C 23.3031 -3.4154 18.4005
N 31.7439 -23.2142 25.2157
F 20.9994 -17.4402 7.2097
F 20.4873 -6.0966 2.6974
C 20.2621 -5.2353 -6.4676
O -61.5981 3.2053 -32.2207
F -29.4240 9.1948 -25.7579
N -15.1044 -0.0132 -13.5788
H 3.6328 19.1914 2.2931
H 27.5828 8.5163 32.1908
H 39.5704 -22.4456 26.6874
16

C 8.4864 -13.4119 -49.8680
C 1.6623 -3.6746 -28.0581
C -3.5263 2.1492 -11.1629
O 0.7886 4.3230 10.8457
H -2.0414 2.3185 28.7394
N -1.1637 0.6816 34.3163
N -2.9696 1.8315 23.0344
N -2.9102 2.7105 20.7524
H 3.0816 -3.5966 4.5646
N 5.6406 -13.7454 -52.7114
H 8.6775 -11.8717 -55.2859
H 1.4436 -4.9734 -39.0225
H -3.4949 6.0164 -3.3704
H 0.8554 9.7565 21.5037
O -0.0010 10.1574 42.2634
H -14.5289 11.3289 53.4596
19

F -132.6868 -74.2677 34.1618
N -82.0273 -45.8641 20.3941
F -62.9168 -35.1573 11.2099
C -23.3668 -15.5428 -3.8516
H 30.9828 15.2124 -17.9202
H 74.1180 44.8369 -23.4332
F 100.3816 57.2148 -20.9894
N 92.4676 50.5056 -11.6388
C 48.7299 21.1556 3.6196
O -143.2961 -79.1301 38.5449
C -149.0229 -80.7719 35.4153
H -141.6839 -76.0914 32.5789
H -82.4026 -47.8296 8.0135
N -45.1606 -22.3840 -10.0882
N 21.2232 12.8804 -34.9537
H 93.3686 45.4317 -35.0590
O 142.7843 77.9723 -31.3267
N 151.0800 85.1903 -13.3446
N 107.4280 66.6389 18.6675
20

F -28.4945 -263.6829 -47.1930
H -17.7422 -157.8447 -37.6262
C -15.6096 -104.3962 -51.9391
O 8.0096 -25.4117 -37.7780
C 23.4787 70.8746 -17.9333
H 20.9635 155.1066 24.8695
C -0.0720 184.1935 63.6166
N 2.5009 149.7518 84.7654
C 20.1739 45.2945 77.2720
H -30.3346 -281.8261 -44.8447
N -61.8559 -269.6400 -75.0516
N -94.0778 -242.0326 -97.4407
H -44.9480 -109.4198 -111.9567
N 25.0155 -33.1307 -91.8802
N 112.4591 70.4157 -72.1475
H 198.3492 161.5679 1.8133
O 227.9404 224.9183 89.4745
O 99.8596 232.3309 154.3808
N -68.6240 183.6274 199.2095
C -376.9916 9.3032 -9.6107
17

F -54.1660 20.6071 -101.9933
C -32.6945 9.6845 -63.4886
H -18.6383 4.2869 -36.6768
N -3.4043 5.1390 16.2152
C 23.8750 -5.4051 29.4430
F 42.6227 -13.2290 67.6074
F 37.4247 -22.7139 72.4249
F 22.6968 -19.7481 52.3604
C 6.3443 -3.2687 13.1138
O -59.6935 22.2246 -114.5114
F -54.8238 27.2948 -112.7649
N -61.5417 26.1543 -104.5719
H 2.6258 8.5666 -13.3612
O 11.2268 9.0545 26.4565
O 34.1018 -8.1310 71.2379
O 63.3283 -26.2354 106.8973
C 40.7159 -34.2813 91.6118
17

N 75.6578 -43.5492 -0.6121
H 41.8905 -28.0386 -3.9973
N 20.6033 -3.7330 -5.6334
N -3.1319 5.7698 -9.7334
F -30.1365 5.8873 -1.5250
N -45.9516 9.5498 13.9394
O -49.0370 22.3602 14.1414
F -43.0697 27.8176 -8.6305
C -13.8590 13.5937 -2.5864
F 87.6705 -56.6524 1.3703
O 72.3302 -41.7989 -0.8538
H 58.2784 -59.6083 -11.8079
H 27.6790 -9.1596 -3.5312
C -5.4846 13.4792 -6.5832
C -54.5968 52.3516 10.1326
C -56.7835 46.4030 0.2904
F -82.0592 45.3280 15.6200
16

O -53.8437 -29.7688 -27.8203
F -31.5359 -17.0456 -16.3883
H -9.2697 -9.0712 -3.3815
N 8.5643 5.6902 4.4960
C 21.4259 17.2551 13.9311
N 31.9652 21.1368 11.2787
O 35.1523 14.5500 15.0533
F 28.6216 7.7755 -0.1965
H 13.7814 -6.9036 -7.2516
O -60.4671 -26.1388 -18.1333
F -54.9953 -24.7679 -11.3798
N -43.0097 -3.9789 -5.8971
H -4.5806 0.1804 3.9636
O 22.4192 5.8157 6.0185
N 40.9900 29.3944 18.5963
O 54.7821 15.8766 17.1106
13

O -1.3562 -2.0889 0.5518
C -0.6786 -1.2725 0.3821
C -0.6211 -1.3774 -0.4856
O -0.4206 -0.9626 -1.3152
C -0.2287 0.0993 -0.9709
C -2.0794 2.0105 0.1286
N 0.6039 2.0646 -0.4447
C 2.0198 3.2494 0.9868
C 2.8929 3.3686 -0.7408
H -0.6774 -1.4777 -0.3634
H 1.2064 -1.0733 -0.4294
H -0.1446 -2.5715 1.1557
H -0.5163 0.0314 1.5451
18

F -34.7624 -89.5468 135.7980
O -14.9267 -49.2357 86.4156
N -8.1963 -34.6834 61.2218
C 2.5426 -10.4512 12.9565
C 15.6906 26.6774 -40.6969
C 19.5132 64.1408 -78.7185
F 17.2029 67.1188 -103.1478
O 13.6268 41.4773 -73.7457
H -2.1340 1.2645 -16.4714
N -32.9842 -90.9164 152.9859
F -36.1047 -103.5980 143.5217
O -31.8930 -97.0599 132.4782
C -5.5072 -43.5987 68.5738
N -1.1905 7.6987 17.9020
O 13.5845 58.7828 -58.0155
H 24.0877 82.4019 -133.0547
N 25.0461 92.8099 -170.5170
C 36.4046 76.7180 -137.4858
14

C -17.5066 6.5196 5.8650
C -8.1938 3.8843 3.1614
C -1.0713 2.2380 2.7583
O 6.8358 1.9078 1.8658
C 13.4792 2.8544 -0.3201
N 17.1108 -3.8712 -5.4241
O 13.0523 -8.4414 -4.5431
C 1.7241 -9.0937 -5.7408
C -3.9508 -6.6286 -5.0161
H -20.3906 6.2119 9.7198
H -14.5582 3.9964 4.0153
F -7.3932 4.2916 2.0443
H 5.7152 -1.7151 -6.2697
H 15.1471 -2.1541 -2.1160
12

N 5.8241 2.6890 1.1235
C 2.5136 0.6571 0.7431
C 0.9879 -0.0504 0.7293
C -0.7220 0.3627 1.4917
O -3.8913 -0.1999 0.1920
C -4.1730 -1.5315 0.3982
O -4.8221 -3.4337 -0.2144
N -6.0827 -2.9911 -0.7943
N -3.1545 -1.7672 -1.2009
H 5.6546 1.3053 0.1133
H 5.4609 2.6185 -1.1293
H 2.4046 2.3412 -1.4521
15

C -8.6599 -0.5994 3.9273
C -3.2860 0.0982 1.5629
C 0.0346 0.7707 -0.0174
O 2.9060 -0.8717 -0.8251
C 5.3801 -0.2018 -0.6041
C 5.8021 -2.0678 -0.5096
N 4.0432 -1.3473 -1.8536
C 3.8683 0.1553 -3.1190
C 1.7862 0.7566 -3.6671
H -9.7375 -1.3891 4.7426
H -8.9482 0.7986 4.1411
H -8.6117 -2.4404 1.3996
H -0.4515 2.8082 -3.3831
H 7.9187 3.9953 -1.5928
H 7.9556 -0.4653 -0.2016
23

F -227.7024 2.4905 250.6976
O -50.5493 73.7157 103.0572
H -55.9400 145.3843 25.7457
H -285.3712 10.6230 -339.3691
F -57.7485 -99.9427 -243.8125
H 14.1048 -69.5706 -147.7317
N 146.4962 -159.0120 -2.0375
C 182.6465 -98.9739 -138.9524
C 358.5124 -8.6105 114.5903
O -72.1712 -215.9554 218.8245
C -234.5074 -318.5853 288.6537
F -321.0773 -272.8566 109.8794
O -424.8515 243.8774 -16.9467
O -638.3113 225.4276 121.2397
N -44.8077 240.6213 -418.0975
O 104.2931 1140.9835 288.9268
H 210.4894 570.8709 437.2990
O -12.2778 -1064.2693 -194.4059
N 433.9138 -704.6773 -149.8940
C 439.6657 -241.8466 32.4006
F 93.4306 432.3714 -730.2792
H 294.8860 274.3045 71.1692
H 146.8770 -106.3702 319.0430
18

C -131.9757 28.8509 -17.4952
F -77.5527 20.5453 -12.8089
C -51.2166 10.6914 -10.7527
N 3.5649 0.4735 -3.5728
C 50.2988 -10.9742 -1.3249
N 83.0852 -16.9395 2.3403
C 88.0615 -23.5779 14.4143
F 64.4957 -18.8211 18.9248
C 24.2587 -10.0753 21.1506
F -136.5406 42.9847 -18.6023
F -139.3764 30.2932 -23.4658
H -127.1622 32.0492 -14.4924
H -58.2187 6.9888 -17.9392
C -0.6587 6.8377 -3.3232
N 51.1739 1.1014 -1.9426
O 112.3985 -13.1810 17.2316
N 134.9196 -38.5084 17.6288
F 110.4448 -48.7386 34.0294
20

N -146.9887 180.6956 -89.9651
F -75.3936 107.9105 -60.3816
H -50.2560 68.0548 -74.8474
C -3.7910 1.5232 -56.1276
H 32.3985 -68.8869 -14.9151
N 75.1016 -111.7050 43.7075
F 98.0725 -113.1949 95.9004
F 70.0272 -81.5475 109.3492
C 0.4112 -29.7900 87.5346
F -156.3047 195.7060 -81.5309
C -116.9838 198.0819 -109.2243
F -62.8103 189.6945 -121.1626
F -7.2354 79.7801 -137.4212
N -15.5053 -17.6886 -129.6916
O -50.2912 -126.0763 -56.2666
O -74.0224 -206.4353 48.4709
C -83.4637 -237.3358 164.9582
F 40.2311 -163.5345 220.0354
H 135.3257 -56.9573 182.5396
H 391.4781 191.7056 -20.9619
16

H -143.3577 18.4056 -7.5673
H -83.9620 13.0678 2.1185
C -35.8054 6.6524 20.7841
N 10.5059 -17.3196 -7.2336
C 66.8649 -16.2763 -18.1761
F 108.3166 -6.7228 -8.4210
O 106.0512 9.7712 -10.3951
F 53.5113 -18.8084 -12.5480
C 14.6863 -21.0299 -2.4391
H -149.4134 2.9710 -8.7661
F -143.3175 30.0037 -2.3681
N -114.3156 22.5731 -20.4189
C -23.5925 3.3196 -8.9436
C 81.6130 -19.3779 43.5970
O 125.9772 -7.2122 30.4968
C 126.2379 -0.0174 10.2803
21

F 75.8401 96.5822 224.1013
C 60.5014 48.0358 115.9801
F 22.9444 22.2953 33.0254
C 0.1547 -30.2072 -48.4998
O -43.2539 -55.6035 -121.9713
H -45.1582 -51.6432 -120.6031
F -44.1832 -22.3841 -100.7743
N -54.5107 6.4488 -47.5731
C -75.0315 -22.0622 42.6378
O 71.5581 98.2676 248.3981
C 126.3883 120.0846 208.2144
O 143.1264 158.2089 127.1819
H 83.3457 49.1336 -80.2691
O -5.6251 -149.0159 -123.9450
N -133.6441 -252.1083 -122.5148
N -159.6893 -324.4164 -39.9874
O -176.6259 -242.7879 64.3058
H -4.1207 -39.4938 60.2378
F 58.4186 210.1938 25.7994
H 226.5046 504.2530 -293.2165
N -126.9396 -123.7810 -50.5276
20

H -84.4435 -75.6888 122.1141
F -54.0557 -38.6705 80.0863
C -37.7149 -12.4330 76.1737
C -0.0685 14.4140 52.0537
C 38.8825 34.7590 0.9130
C 53.4350 58.8110 -54.7713
F 40.7249 43.7772 -119.0621
F 36.4990 15.4564 -120.6250
C 43.2879 -34.3614 -70.9984
O -83.6623 -85.2077 124.7580
C -114.6454 -63.2766 125.2051
F -133.8347 -32.5649 102.1812
F -63.5015 9.3675 86.4790
O 1.3150 33.9205 119.7599
C 85.3470 35.7522 92.0052
F 198.7548 6.8348 44.5303
F 251.6879 -34.0968 -47.1792
C 169.4219 -24.1959 -170.0870
F 5.0859 20.1921 -220.3412
C -352.5151 127.2109 -223.1951
16

F -8.7435 -15.7519 0.3899
C -4.9023 -8.3610 -0.1797
C -2.7728 -3.1609 -0.4517
C 2.0590 2.8441 0.1630
C 5.8712 8.1236 0.3027
C 7.8378 12.0794 -0.2279
F 5.5101 9.9906 0.3285
C 2.5347 4.2561 -1.1246
O -1.7712 0.3584 -3.8655
H -8.6795 -19.5591 0.5427
H -7.8638 -17.8177 3.0452
H -8.8346 -14.9899 1.6515
H -1.3520 -0.6244 -0.1402
H 6.0465 7.5774 1.0464
H 8.1913 18.6817 -3.5432
N 6.8691 16.3536 2.0630
14

N 0.7954 -5.5521 8.7740
C 0.3347 -2.5502 4.8243
N -1.3255 -0.8636 2.0462
C -0.2669 0.9666 -0.5129
C 0.8165 2.3374 -3.7632
O -0.0640 4.2985 -7.2105
O -0.9291 4.8574 -7.3234
C -2.3745 6.5604 -5.5034
C -3.8584 4.8252 -6.9996
H 1.5547 -6.7264 9.3834
H 2.9605 -7.7447 8.1694
H 3.7126 -7.5445 3.8060
H -0.1995 2.3587 -2.0202
H -1.1564 4.7773 -3.6702
18

F -111.8441 -30.4506 72.2808
O -70.4077 -18.8986 48.1926
H -40.1790 -16.0034 31.2927
F -1.3481 2.0563 2.2638
O 39.6044 9.3304 -27.2720
F 67.4638 19.8500 -48.5405
F 71.6161 22.8875 -53.2299
O 61.0096 14.2761 -41.5807
H 18.6257 -2.6755 -4.9610
N -120.2305 -31.6215 83.8266
F -119.9469 -32.4118 79.4203
H -106.7140 -35.9346 77.7736
H -44.1152 -13.3484 31.8795
N -12.4450 2.8209 3.3041
O 54.3086 21.7413 -42.8806
O 100.1116 30.3453 -65.9120
N 116.0637 38.2549 -81.6729
C 98.4273 19.7817 -64.1845
15

N -3.4937 6.8001 -22.5716
C -1.8677 6.2537 -13.0006
H -0.9860 3.8583 -3.7489
C 1.4304 -1.6712 10.3755
C -0.0310 -5.6083 16.8925
C -2.4905 -6.2972 19.4231
C -4.4125 -4.4752 8.1394
C -2.2191 -2.7905 5.0551
N -0.9366 -2.2437 0.9959
H 1.0756 4.7743 -27.4945
H 4.9919 9.9045 -24.9532
H 4.3140 3.6565 -11.5312
H 5.5288 -3.9708 5.3757
H 1.0711 -3.0534 17.8375
H -1.9747 -5.1370 19.2054
22

N -188.7278 296.6337 -0.9309
F -108.6354 148.2315 -33.1665
N -9.6363 41.1528 -36.9183
C 134.4792 -35.8761 -8.9164
F 183.2090 -130.9186 35.8892
C 198.4268 -171.9982 78.2653
F 126.9143 -131.6512 54.1994
C -146.2772 -10.6492 -35.1861
H -443.2087 43.2506 -106.5794
C -186.2092 288.0943 11.3644
O -36.7208 202.7125 -34.0315
N 94.3992 138.1647 -42.3406
F 169.0435 20.6444 -104.4450
H 167.6309 -68.6435 -59.9207
C 130.2216 -222.2713 29.9247
C 29.8254 -407.3831 161.3584
O -113.5934 -335.2642 171.7072
F -30.7436 -207.4329 141.7358
O -38.6742 -257.7132 -25.1733
N 361.3325 132.4913 -194.4896
H -634.3424 304.3345 -145.6559
O 341.2868 364.0914 143.3096
17

C 87.9958 22.9730 -138.8151
H 69.4177 12.7813 -84.4982
H 25.5574 6.6129 -31.6889
O -10.3361 -7.4934 8.7202
H -45.8985 -18.0648 68.8876
N -79.4782 -9.9577 100.1887
F -58.4807 -2.6118 94.4586
C -45.4905 -9.2629 53.0765
C -2.0880 -1.0000 12.5299
N 103.0076 30.8170 -150.0931
F 104.5403 31.5505 -161.5559
N 78.5341 6.1019 -133.5523
O 47.9912 -3.7818 -35.6512
N -14.2900 5.4726 43.2156
O -54.4616 -19.6195 105.0569
O -104.7085 -24.6600 135.6857
O -101.8119 -19.8573 114.0351
20

C 162.3820 -134.1222 103.8770
F 102.1120 -76.8682 71.7150
C 70.5262 -33.4809 59.5885
C 33.7352 10.3360 10.0227
F -26.2266 48.1379 -44.1536
N -83.8184 80.2643 -72.0666
F -128.6130 83.9174 -71.9099
F -122.8691 59.1762 -55.1884
C -41.6012 0.1549 -46.6035
H 172.7339 -152.3620 111.0079
H 156.7566 -149.8103 141.7293
F 121.6169 -129.7832 161.4739
N 77.8448 -12.3846 133.3920
C 60.8218 25.3936 40.9377
C 44.6125 37.1149 -139.4687
C 49.2969 61.4359 -313.5567
H 25.6764 82.1189 -357.6774
F -83.5801 81.6218 -214.4758
C -212.0948 74.9118 49.4062
N -379.3120 44.2277 431.9504
22

F -129.6880 -35.4436 190.0787
C -82.1730 -13.7620 105.6959
C -42.9518 35.1551 46.9630
C -34.8468 24.2419 -83.6872
C 29.3232 -5.3950 -142.5885
C 34.0094 -13.1335 -110.0360
F 34.2837 -20.2517 -64.7143
C 58.0319 -14.3372 -15.2239
C 178.5968 -25.4060 46.1553
O -150.9621 -21.7488 220.0743
N -184.8621 46.9910 195.4445
H -215.7883 147.3250 119.5378
F -63.7345 149.4233 -63.6865
O 25.6164 -11.2590 -94.9599
N 173.8160 -66.7298 -195.5275
H 273.3486 -91.8629 -39.8788
N 263.9988 -306.9401 113.9905
H 109.8354 -487.7747 155.5796
N 85.9497 2.8753 102.0181
H -201.6482 602.8270 -342.6163
O 215.1988 87.3909 -287.2070
H -375.3538 17.8149 144.5883
19

C 90.1618 -45.1883 -8.5626
N 65.4261 -22.3302 -8.2878
F 27.4922 -12.1212 56.2161
N -1.5785 6.5279 55.0344
H -52.2894 0.4535 60.4261
H -57.2833 19.0905 21.0874
F -41.3240 36.1401 -52.1448
O -25.2709 22.1616 -86.1640
F 18.4253 17.3012 -111.7448
N 100.4062 -49.2596 -13.9830
C 100.8858 -57.5190 16.9856
C 75.7948 -40.2243 40.1713
O 14.7494 -13.5489 120.5150
O -36.3410 -9.6716 171.6725
O -73.7916 -9.4212 139.4166
O -109.8144 17.1577 74.1365
O -94.4991 43.1210 -63.1702
C -36.2832 42.9767 -155.2991
H 35.1337 54.3541 -256.3053
22

O 142.8851 161.9859 -295.2319
F 78.6793 101.4431 -107.3907
C 11.8396 126.5907 -51.4423
N 9.7832 12.1338 -107.1881
F 131.1527 -97.8558 87.6630
O -38.4786 -134.8436 21.4533
O -64.8403 -102.6256 210.8544
O -221.2625 -165.2166 136.5218
C -286.5764 -350.0650 265.2134
N 214.9936 299.3596 -303.1068
N 152.7118 181.8907 -348.5312
O 113.1397 306.2605 -321.9475
N 204.4869 109.2487 1.1379
C 358.4389 -255.8126 186.8760
F 388.3498 -132.3054 10.0903
F 171.4537 110.6776 401.4429
H -42.1774 -112.1021 210.4406
N -75.4792 -411.1386 203.9153
F 38.7502 104.3375 466.8795
F -233.9098 80.8332 13.2243
O -878.8346 -727.8648 -144.5705
H -175.1056 895.0688 -536.3037
20

N -103.0187 -162.8634 161.8047
H -64.5807 -98.4703 105.4087
C -20.8608 -71.1948 92.6874
F 21.1314 -20.8770 26.3994
C 63.7769 53.9563 -48.6305
O 75.0970 87.0862 -113.3932
F 62.4898 100.0648 -125.1216
F 15.8592 88.7347 -106.2533
C -2.2488 82.2507 -50.5026
H -110.5774 -178.7641 176.6567
F -133.4038 -202.2216 204.8132
N -134.0962 -222.5218 210.6459
C -49.7491 -119.7168 158.7713
C 53.7449 11.5428 60.3403
O 168.8090 112.1366 -118.7104
C 203.6986 294.6985 -237.8069
H 161.4437 386.1210 -312.0940
H 22.1613 261.0623 -216.0793
H -71.0826 56.8754 -56.3335
C -158.5939 -457.8996 187.3976
19

C 109.7485 47.5424 -186.2325
N 71.9097 27.1395 -118.0106
H 38.3985 14.7096 -52.7491
N 3.6994 9.3606 3.6926
H -48.4451 -19.6525 83.0303
N -74.0675 -36.1977 125.7846
F -64.5654 -32.6105 110.5343
C -44.9503 -31.7456 68.7595
H -6.3355 -0.3089 -11.7827
N 123.5090 55.0167 -202.2182
F 110.6891 58.1510 -194.6635
C 96.8142 62.2837 -165.0657
O 37.9867 27.0804 -52.4611
N -0.6981 -7.2567 43.7238
C -57.8926 -34.5750 123.5466
O -110.7823 -49.4244 176.7047
O -121.1084 -52.0501 145.9530
C -77.7882 -43.5286 120.5782
H 13.8782 6.0662 -19.1241
18

F 12.6271 -90.6061 -65.9207
O 7.8976 -53.7300 -46.1294
F -6.4157 -39.8955 -29.9979
H 5.7880 -5.8567 -3.4601
F 1.5417 34.0180 29.7028
F -7.7181 54.8047 47.6806
F -4.5725 62.2797 45.7460
N -6.8085 49.8387 34.0563
N 1.2653 19.8614 6.4536
F 13.2628 -105.9750 -74.0446
N 3.9446 -97.7474 -73.7986
H 0.6421 -94.6861 -70.0194
F 4.3076 -39.1348 -34.5778
H -5.7362 -2.9583 9.5221
N -2.7363 41.1539 39.8078
O -6.5365 84.4101 60.8517
O -9.1353 97.2864 65.8168
F -1.6178 86.9369 58.3109
21

F -41.3602 -7.7947 170.6933
F -19.0701 -3.9316 92.7405
F -9.5936 14.3618 33.1764
C 23.7003 53.7047 -31.3142
H 57.1908 35.1573 -91.8946
H 41.4803 15.6756 -78.0709
F 0.3189 -30.3212 -68.4651
F -41.6566 -56.9299 -39.2002
C -39.2612 -77.6810 22.7725
O -40.6442 -7.2895 190.2762
N -64.1255 -8.5858 163.9454
H -101.0247 -26.7704 99.8357
H -32.9833 48.6885 -57.0706
O 99.1477 98.6245 -109.8028
C 221.1038 153.9752 -185.2122
H 327.1373 187.2863 -126.5188
N 278.1225 157.0417 -44.7498
N 61.0293 -17.0636 79.2983
N -195.9007 -155.1231 176.3619
C -502.9351 -328.3958 -98.4524
O -20.6756 -44.6290 -98.3487
16

C 44.7768 -9.8672 -40.8743
C 24.8720 -2.8794 -20.9439
C 7.8520 3.4334 -5.5456
F -6.7247 2.9718 4.4344
O -29.7655 7.6151 17.6885
N -39.0872 6.9381 17.9129
N -14.4580 5.2310 22.2438
F -13.8676 -0.7299 10.5424
C 1.5852 1.0094 -0.7309
F 45.7166 -16.1765 -42.0246
H 49.7889 -2.6250 -37.6135
O 38.4784 -15.9389 -24.3825
H -0.8381 11.5686 3.1203
C -24.9562 11.5369 24.4700
O -42.4624 -0.5286 38.3486
H -40.9103 -1.5587 33.3544
16

C -42.2465 33.8869 -13.5576
C -20.3865 17.7258 -11.1517
C -6.7203 6.0826 -7.0749
O 12.8540 -5.1617 3.9536
C 22.4871 -12.4358 6.4567
N 29.7648 -25.7207 11.4660
O 23.5851 -24.4013 13.9797
F 5.4686 -23.1226 3.8610
C -3.3283 -6.0812 -6.7954
H -56.4748 31.7917 -15.2187
F -35.5385 40.8409 -7.5029
N -39.4633 31.3697 -19.6977
C 11.4198 12.0979 -11.6608
H 33.5197 -13.3556 12.3092
O 35.0198 -31.5402 18.8926
C 30.0392 -31.9764 21.7409
20

F 92.3657 69.0008 -81.0806
C 70.2778 44.2062 -60.8837
O 55.7998 34.9142 -86.6313
C 21.1511 2.8223 -74.3135
N -30.0960 -38.9528 -38.8497
C -64.3472 -40.3961 47.7295
F -69.6038 -51.4761 112.4586
F -69.0367 -33.2398 138.9005
C -50.5790 0.1717 109.9343
N 101.1664 72.0595 -83.3034
C 131.9724 69.8036 -102.4502
F 165.3449 76.3069 -81.5452
F 106.1649 32.0940 -130.4057
N 34.2607 -15.9472 -178.0977
O -68.3288 -64.1994 -159.8855
N -166.4489 -82.5986 -87.0018
C -241.6710 -92.6077 66.1775
N -175.7534 -59.0683 223.5912
N -64.5195 -9.2841 278.8179
H 221.8806 86.3909 186.8389
19

C 64.5154 125.9390 137.3238
F 60.9917 83.0374 80.4999
H 58.8762 57.4577 13.4173
C 49.3547 37.5709 -47.6463
H 14.9342 -33.6460 -107.9442
H -31.7568 -75.0825 -84.7750
F -78.0891 -95.4811 -49.6640
F -116.0670 -95.4282 2.6849
C -101.5937 -53.0170 69.1157
N 78.7499 128.9490 170.4646
C 105.1524 132.9982 117.6565
H 122.6423 132.9708 91.7654
F 124.5493 105.1240 -56.1161
N 127.1019 70.0490 -131.8119
O 63.8687 -4.6672 -177.7940
O -8.9983 -71.3489 -137.7921
N -125.4391 -127.9328 -86.2746
C -180.2678 -160.1537 56.2360
N -228.5249 -157.3385 140.6539
16

C -40.2080 17.6267 58.3972
N -19.1003 9.5040 34.7420
C -11.7499 6.1289 7.6642
O 19.1306 -7.2570 -14.0444
H 19.2353 -18.1917 -23.3126
N 23.9410 -11.0518 -39.2620
N 23.4530 -14.0429 -32.2111
N 13.7853 -11.7314 -14.8232
C -2.7508 -2.7821 -6.5752
H -54.5231 18.8990 61.0362
C -35.9834 24.2021 54.8752
F -48.3060 8.6183 53.8000
H -1.4595 18.2227 -8.5227
O 32.4364 7.8056 -38.8971
O 49.5612 -25.3354 -42.4555
H 32.5381 -20.6151 -50.4112
22

O 56.5158 164.7969 -176.4733
C 25.4582 92.4769 -109.7421
F -10.0727 65.1706 -87.3523
N -71.4327 3.7524 -149.3739
F -56.9052 -41.4026 -3.5262
H -54.4181 -40.2323 142.0683
F -2.7225 -71.1709 217.5261
C 11.4273 -111.5970 138.9413
H 112.7019 -186.9232 8.2468
H 65.5587 206.3842 -202.9328
N 30.8512 121.1705 -176.3961
F -12.4825 157.6978 -210.8507
F -22.1220 37.7983 -99.6743
O -91.8691 -138.3923 12.8216
N -99.3489 -90.3373 -125.9992
O 23.7842 109.8026 68.9259
H 30.6583 5.8228 177.2081
N 118.9876 -183.2318 377.3513
F 148.9085 140.3753 547.1968
C 62.8665 360.2031 301.5024
O -45.3933 -494.5077 -572.3040
H -220.9511 -107.6563 -77.1637
25

F -130.4570 -20.6394 132.5064
F 9.1588 86.9172 -16.5448
O 2.9066 95.6959 12.8189
C -124.6070 79.5201 -117.4531
C -35.6264 -14.0644 -122.0692
C -64.6705 -154.1178 -72.1529
C 90.0280 -124.5042 -170.1494
C 48.4709 66.6493 66.8332
C -54.7255 219.1852 201.7578
H -182.6105 -190.9365 202.7855
O -14.7257 -7.8719 -84.7459
H 170.2833 297.5727 52.6753
N 88.0339 418.5433 109.4038
O -581.0103 -229.7830 173.4857
N 126.8920 -673.9010 -240.3547
C 24.0811 -697.7902 -150.9198
O 420.1129 -55.3581 -134.5556
H 339.4176 327.9214 99.6854
F 462.6986 254.1565 396.5119
F -84.1498 -365.1920 57.7953
H -327.2756 -18.3739 -85.8831
H 54.5577 367.7917 -614.2217
F 193.8797 -0.4211 279.1217
H -155.1767 145.4440 479.4691
O -275.4862 193.5565 -455.7997
17

F 60.0374 14.9781 -1.1432
C 32.8875 5.9455 0.6719
C 14.2417 3.2059 2.8712
N -5.2554 -1.6815 5.2306
F -32.5475 -0.3693 2.3235
N -43.7193 2.0690 -2.7802
C -34.8044 2.8409 -5.5072
F -25.1729 -10.1277 -5.1251
H 14.8264 -11.7408 5.2609
F 73.3301 10.9071 1.0703
F 63.8146 11.1633 1.6977
N 43.4850 4.3824 -5.1285
H 23.1859 7.3746 2.3981
C -20.3199 5.1296 5.7780
C -51.5036 -7.5015 6.2030
C -64.8933 -19.8159 -4.0120
F -47.5922 -16.7598 -9.8088
14

F -8.2687 -24.1678 -17.8071
C -1.0095 -12.9474 -6.2591
C 6.7541 -4.9956 1.6322
N 12.0736 5.3337 9.1418
C 9.2878 15.8415 10.9377
O 4.4994 19.7870 9.9338
O -1.5698 13.1248 6.7420
C -4.6774 17.0898 9.3508
N -7.4728 15.7038 7.8460
O -7.0487 -26.9320 -24.2847
H -11.8632 -23.8935 -12.0233
H -7.3325 -7.1925 -15.7053
H 3.7784 3.7579 12.4788
H 12.8492 9.4905 8.0164
18

F 58.1952 58.1719 59.8079
C 33.3761 35.9822 37.2893
C 16.3440 28.9723 25.7582
F -4.2363 5.8912 -0.3243
F -23.1822 -22.6206 -22.8257
C -36.6480 -42.0814 -36.2408
C -37.7876 -42.4023 -41.1308
N -24.5272 -32.7401 -28.6362
N -5.1508 -9.8509 -5.3013
C 65.5418 68.0566 61.6952
F 62.7550 64.8522 56.6947
H 55.3835 57.7636 55.1914
N 19.6192 27.9972 25.8660
N -10.5969 -1.2893 -3.9643
N -35.6699 -28.1085 -27.1373
C -48.9728 -57.8949 -52.0342
O -52.9506 -59.9391 -61.0033
H -31.4924 -50.7603 -43.7045
17

N 39.6825 -76.7042 32.9702
C 20.2630 -44.5218 9.4167
C 6.7229 -14.7725 -0.1073
H -1.6370 10.5796 -9.1416
O -14.0365 30.7495 -17.3125
H -21.0865 37.1715 -9.2932
O -27.3601 46.7441 -6.5726
C -20.6444 36.1220 -7.6073
C -7.1037 10.9804 0.1893
O 44.0672 -89.8374 35.3051
H 34.6314 -73.8806 32.2869
H 29.9439 -68.3844 15.4780
C 5.5876 -6.4236 -7.1819
H -6.1771 15.3598 -9.1761
O -32.7393 56.1069 -12.9501
N -15.4890 64.6247 -33.4990
O -34.6249 66.0860 -12.8047
17

N 41.4150 -29.5725 -55.7380
N 26.8420 -16.7605 -32.6588
C 11.2433 -7.6166 -12.1331
H 3.6733 3.1915 5.9410
O -14.3907 13.3826 31.7388
N -30.5554 21.4179 45.3650
F -23.4193 23.3757 39.3565
N -25.2853 13.5489 15.0590
C -8.5721 2.7550 -4.2076
F 41.6324 -35.8894 -57.9668
C 39.1261 -25.3175 -61.8001
H 33.8957 -32.0637 -50.8211
H 16.7108 -3.9006 -13.4217
C -6.0955 11.2420 21.2179
O -33.2117 17.4553 45.3349
H -35.0660 21.0167 45.0487
O -37.9426 23.7353 39.6855
17

N 21.0942 -65.2539 -60.0122
O 11.9246 -33.0309 -36.6041
C 4.4750 -9.4758 -23.3402
H 8.8445 13.2538 -3.3186
C -2.4860 24.1874 26.9177
N -8.2793 26.8571 45.4285
F -12.7058 30.3760 43.2392
N -24.0701 21.6640 17.9871
C -19.8278 8.2465 -5.0275
F 23.0525 -69.2207 -66.5440
N 13.9878 -57.4330 -61.4968
H 11.3298 -61.5060 -57.6542
H 15.3041 0.1716 -7.5222
H 0.9050 21.6606 25.2156
O -13.3551 44.3239 62.0830
O -5.9119 56.7115 55.8372
O -24.2815 48.4678 44.8114
16

F 1.1238 -1.0802 23.1704
C 0.6053 0.0282 12.4852
C 1.2482 -0.3938 4.2435
O 1.3284 -2.6393 -5.1191
C -0.1220 -4.0529 -12.9008
N -1.1776 -0.7046 -15.8825
N -1.9433 3.9586 -13.5938
C -2.4400 4.0053 -7.3576
C -3.2785 3.2441 1.5102
H -0.6754 -1.9987 26.5163
H 1.3707 -0.9796 23.6049
H 0.0844 -1.0407 20.3122
H 1.6544 -2.3441 -0.8084
H 0.6066 1.4665 -11.8285
H 4.7235 2.7757 -22.0683
H -3.1086 -0.2445 -22.2836
15

N 15.0244 28.3365 -25.0282
C 9.1721 16.3038 -15.6499
H 0.5946 7.2242 -8.5076
C -4.6449 -1.8028 7.6261
C -14.5874 -16.7383 17.1250
H -18.8463 -22.2786 18.2450
C -16.2445 -14.9251 13.5241
C -10.6855 -12.7179 9.4816
C -12.1796 -4.2550 1.0991
F 27.0308 27.1574 -27.9820
H 21.5596 26.1966 -17.8936
H 26.2241 9.4847 -2.5616
H -1.9048 -1.4742 4.5289
N -3.6246 -18.4477 15.4534
H -16.8879 -22.0637 10.5398
20

O 197.4082 -107.3391 -108.5964
N 126.0130 -62.9661 -65.2474
N 110.8461 -35.5931 -28.1079
N 67.9087 -22.1527 -5.5763
C -29.6365 21.9955 29.0579
N -113.2373 58.0794 47.5745
C -165.5945 78.0929 68.2724
H -172.1268 72.7574 59.0689
C -109.1776 38.2282 -2.8934
O 199.0070 -102.4563 -109.9110
N 234.8024 -110.7217 -79.1509
O 244.0389 -86.9689 -34.8515
N 187.2819 -17.1274 30.2186
O 102.1418 -43.3813 20.0786
H -27.2786 -66.2557 -59.6054
O -174.0320 -48.7685 -136.3926
O -268.4753 -9.8955 -146.5141
C -274.0388 65.6570 -19.4485
F -199.4454 160.2032 113.6856
H 63.5948 218.6130 428.3387
21

O 76.5833 -87.4847 -88.5300
F 67.5593 -60.9098 -61.1640
C 79.4968 -40.1675 -85.3122
N 119.9335 4.6992 -74.8339
O 64.8095 16.5469 -42.9356
N -16.9525 37.1786 16.4471
C -116.1155 31.2689 65.3317
F -205.5756 54.2969 124.4267
H -227.1839 75.6263 172.0772
F 86.2149 -87.6337 -91.4974
N 136.3094 -101.1722 -108.5194
N 163.5293 -125.3660 -109.2767
H 201.9416 -11.0513 -132.3185
C 251.4697 44.6128 -142.5458
O 224.5967 168.8367 -50.0541
C 50.1993 184.6636 15.9629
F -216.8225 199.0303 37.1183
H -393.0336 58.5878 108.7443
N -344.5464 -101.5754 109.3788
H 76.9923 -411.3830 18.4742
F -79.4056 151.3958 319.0262
23

F -15.0279 317.2083 -89.4837
O -1.0894 142.4451 -56.7875
H -28.5553 -22.2583 -55.6054
H -80.7891 -77.2559 -164.1759
C -45.5605 -72.0721 18.6966
O -5.0080 -39.9900 265.6812
C 59.2496 48.9625 251.2107
C 163.7990 29.5427 0.6458
C 78.2350 -124.6183 -434.9101
O -32.7577 191.1415 -26.0564
O -76.7045 -131.8888 -5.1106
F -179.2767 -299.3248 -16.6104
H -108.7413 -187.2496 -207.8109
O -328.8915 -90.8982 -124.8796
H -306.4579 -161.3987 -278.0692
O -129.6877 111.2397 232.2338
C 133.5775 299.0167 443.2549
C 520.8447 101.5739 188.1383
F 404.0296 -111.6673 104.3554
F -34.7050 -73.0980 519.6238
F -69.0070 -239.4754 -160.1893
N 347.9861 306.9651 348.8429
H -265.4619 83.0999 -752.9943
19

N -0.5202 -114.9643 98.6546
O -1.0925 -68.6984 62.8036
C -17.8828 -36.6473 68.2764
H -9.3524 -0.9240 41.3353
H -12.8188 32.9034 -0.7548
N -0.7445 63.3744 -50.3681
F 23.7550 78.8888 -96.4415
N 24.5590 60.4547 -111.6530
N 28.4712 22.7993 -82.0888
F 1.6710 -125.3569 106.1204
C -4.0240 -123.1688 131.0901
H -19.8386 -117.1987 119.5067
F -32.1366 -42.4800 120.4630
O -44.6826 -2.2853 111.8210
O -41.7039 32.9417 55.3182
H -13.4395 73.8172 -40.0607
H 18.2694 103.4679 -140.9951
F 48.6769 90.4053 -200.0719
F 52.8339 72.6712 -192.9555
19

N -28.1012 -241.9967 40.1632
O -17.6041 -149.4712 25.2539
C -35.1927 -96.7860 42.3462
N -20.9327 -23.3313 34.7527
O -13.0631 67.2379 9.0159
H 16.5221 133.2655 -17.3014
F 51.3246 171.4119 -49.9685
O 48.0784 138.7941 -68.9971
F 46.6570 59.6752 -68.3281
F -31.0778 -264.4816 50.4700
C -43.6467 -255.3812 66.1484
H -52.9236 -236.2976 70.3844
F -56.7327 -108.4496 76.1726
O -61.5766 -38.0228 83.8552
O -44.8030 58.2692 54.9668
H -2.5050 151.1654 -6.7747
H 49.2142 230.3149 -80.9315
F 95.4836 229.1295 -128.4226
F 100.8791 174.9545 -132.8055
18

N -9.3804 -54.3645 -153.9458
N -10.0408 -22.6786 -90.1120
F -10.7780 -19.1299 -57.2683
O 8.2835 -5.2253 1.4197
H 7.5972 16.8639 65.1195
N 12.5666 27.0050 98.8963
F 10.9651 42.6599 98.7691
N 6.5907 30.4590 68.8008
C 5.5728 13.2565 4.2533
O -15.4223 -53.8195 -168.6434
N -18.5879 -64.0405 -158.0008
H -24.5678 -55.9715 -141.2856
H -7.9106 -23.8317 -58.1158
F -0.2885 -14.6453 35.5101
O 1.0991 19.0071 88.2971
O 15.3394 48.3485 132.1997
O 14.6483 62.8846 137.0139
F 14.3136 53.2222 97.0923
19

H 15.2238 -223.4876 -23.8661
F 8.5926 -140.8452 -17.8638
N 2.2439 -109.8425 -15.5422
H -3.1773 -42.7039 -11.7264
N -11.0535 47.6157 -2.7352
F -14.0183 126.9512 13.6219
C -8.9743 167.7163 25.7868
F -0.2605 158.7249 29.1105
N 8.0473 87.6269 18.3949
O 13.4298 -243.0195 -25.5757
N 11.3962 -243.4155 -33.0331
N 10.2728 -230.3478 -33.2407
F 4.6565 -131.7786 -33.9203
N -5.7583 -78.9811 -27.1016
O -7.7903 13.4238 -15.2373
O -9.7404 135.9925 6.6162
O -4.2784 230.3718 36.2881
H -11.5379 263.1462 49.0261
O 2.7264 212.8524 60.9977
23

F 137.2345 3.7347 53.2358
C 23.8729 41.4958 91.5593
F 52.7601 -21.8034 66.9035
C 35.3647 227.8026 -362.3962
F 40.8083 84.5838 -47.0343
H -283.4176 -49.4431 -137.2655
N 0.6713 5.6123 11.2968
C -55.2224 -308.9680 -121.0292
C 84.6476 -358.3994 162.3799
O 34.5793 24.3324 203.4157
N -116.2495 -132.3625 307.9193
N -322.5113 -155.3322 -90.3168
O 159.8907 291.6232 72.5164
N 434.6468 280.3156 196.1417
H 386.6252 -25.2840 -387.1261
O 135.7550 175.4972 318.4613
C -143.5630 159.9392 269.1781
N 13.3751 -723.3884 -415.7697
N -201.9269 461.2426 -405.4607
C -40.8892 -59.8785 -107.4285
C -115.5255 -406.5066 -338.7080
H -236.7722 325.4942 66.7649
H -24.1537 159.6924 592.7621
23

N -62.7886 193.0046 63.9807
O -37.3650 118.4819 -28.0627
O 88.0629 54.2773 -35.6730
C 144.2902 -36.5437 -69.4451
F 94.5751 -18.3301 -78.0835
C 26.1954 -29.5167 29.1566
N -58.5095 -65.4872 67.5437
O -194.0290 -18.8711 47.7692
O -259.1594 -83.9388 -2.5609
O -34.7100 167.0285 88.8149
F 149.1879 -6.3465 -55.3596
H 292.3813 -67.0130 -216.9621
F 242.4797 -100.1609 -101.3868
N 81.8580 99.5985 -11.2759
C -43.3373 32.4942 -143.7813
C -140.0785 270.0252 -19.9500
O -244.1199 243.1814 19.7174
C -348.8391 117.1832 17.6903
H -198.8972 -400.6396 256.9822
N -69.8819 -73.7215 -38.5495
H -249.3122 5.7074 -267.7279
N 487.9872 17.1298 320.8287
N 334.0098 -417.5428 156.3344
15

N 33.1096 -28.2459 25.9466
C 16.1677 -10.2777 8.8231
N -3.1213 -8.1088 0.5241
N -11.7758 3.4171 3.9683
C -19.2657 21.0427 -8.8577
O -23.3226 20.8856 -20.7078
O -26.3084 27.7353 -17.5075
N -12.8981 10.1781 -14.8526
C 8.3541 3.6497 2.1524
H 37.9264 -35.5903 25.3818
H 34.5537 -25.6718 21.7103
H 18.2994 -27.1660 19.2788
C -6.6520 11.7145 -4.4423
H -20.0850 17.1418 -9.3066
O -24.9820 19.2956 -32.1108
18

H 104.7444 -104.3803 93.9400
C 56.8982 -59.8106 57.3876
N 34.1110 -31.5934 35.3001
N 2.9186 -10.4618 -3.7788
C -34.6029 30.2495 -38.3223
C -58.9122 58.6908 -58.6890
C -74.7785 57.6919 -63.8308
F -65.3613 52.4789 -41.0575
C -7.1372 28.1117 -15.1901
H 121.0978 -107.9520 102.6230
N 116.5862 -113.3279 87.7454
H 102.1439 -91.3530 91.6754
C 20.3325 -39.0653 39.4861
O -7.6156 -3.9027 9.8254
O -54.2122 42.5384 -40.8269
N -76.9897 78.8551 -64.3178
F -91.0699 113.1440 -106.8141
C -88.1531 100.0868 -85.1556
17

F -5.0635 15.2393 -76.5278
C -0.8473 10.3615 -46.1527
H -0.4482 5.2748 -20.7332
C 0.6635 1.8530 12.9034
H 1.0594 -10.3004 35.2826
H 4.2852 -13.8537 45.4078
F 0.7452 -13.1181 44.3560
C -5.5846 -9.2395 27.5166
C -3.7060 0.7521 0.2949
N -0.6896 19.2861 -88.7558
H -4.0062 17.2620 -78.6788
N 0.2810 19.4960 -69.7714
H 7.1878 10.3234 -8.8725
O 4.8244 -2.1524 30.6826
O 1.6768 -18.1012 58.3513
O 1.3200 -17.3998 77.5013
C -1.6978 -15.6829 57.1959
17

F 31.5495 64.4621 17.5788
N 20.9454 37.5088 9.2166
C 13.2955 20.2891 3.9564
C 3.8275 -1.2632 -0.3941
O -11.1832 -28.0928 -5.1059
H -20.9231 -41.7169 -11.0879
F -22.0623 -41.1238 -12.2265
F -17.0903 -27.6725 -9.9927
N -2.5856 -6.1780 -0.5315
C 31.4315 71.4499 28.9922
C 30.1352 71.0804 23.1568
H 22.3139 51.4698 18.9516
H 12.4156 29.0158 1.5562
O 3.8447 -19.3321 -12.0549
N -26.1351 -56.3213 -17.6733
C -30.5883 -66.5654 -17.4217
O -39.1909 -57.0101 -16.9200
14

C 5.4238 -5.7017 -11.3309
C 3.2062 -3.4946 -5.8189
C 3.0204 -0.7297 -0.5536
N 0.7623 1.4278 5.5792
C -3.9407 4.3019 9.7196
N -8.2873 7.3283 10.4625
N -6.6821 5.5287 7.0879
C -4.3803 4.7544 4.2443
O -1.8888 5.3571 1.8955
H 5.1611 -6.8354 -11.3663
H 5.6031 -3.8347 -11.6164
H 6.8225 -7.3813 -6.0636
H -0.4947 -3.3582 -0.2941
H -4.3256 2.6375 8.0549
17

C -53.6256 33.7488 36.4951
O -29.0693 22.5830 20.3006
C -13.6642 14.0285 9.1914
F 4.5780 0.7553 -11.0387
O 20.6444 -13.8711 -15.1717
N 31.1764 -29.3569 -16.6523
F 35.4666 -22.5409 -15.8489
F 23.1510 -18.9572 -19.4463
C 1.6380 7.2800 3.7531
F -59.8987 33.3799 46.8940
C -59.2579 41.6715 44.4166
H -51.1513 28.7540 25.0824
O -5.6014 14.4098 4.1994
C 15.8523 -5.8606 -13.5455
C 36.3335 -15.3205 -28.3240
O 53.1671 -42.9080 -42.6985
O 50.2611 -47.7955 -27.6067
24

O 363.5553 -194.4680 -268.8753
F 91.5049 -157.3203 -220.5141
C 132.6902 4.6619 -28.4082
O -114.6212 -28.8077 -84.9035
C -107.9081 -156.2076 29.5233
H -385.0634 -389.8141 -114.4556
O -31.6018 -255.6263 103.9191
C 184.1331 197.6062 -46.2210
H 52.6130 595.5291 320.5647
O 114.9746 138.6406 126.7775
N 252.9459 413.0218 180.2571
F -499.9911 515.5601 100.2724
N 244.0884 239.2828 611.4377
H 789.5165 -333.5685 592.2867
C 441.1869 82.8501 49.1545
N -21.8839 54.3569 52.3936
F -469.8311 -65.4741 -691.1409
N 15.0362 -1151.5194 -18.9004
F 656.7180 553.9842 -17.5806
F 214.4251 -64.7540 -689.9830
O -458.8076 377.5056 -181.9209
H -664.1262 -261.3803 708.0081
H -498.8664 64.2794 353.8347
C -300.6870 -178.3386 -865.5259
19

F 64.4813 21.0104 18.8901
F 46.2854 13.9345 10.6250
H 40.2526 16.1815 -2.8065
C 21.1092 14.8117 -21.3918
H -7.9380 1.1262 -31.1448
C -36.1033 -10.8141 -12.7345
F -57.5071 -25.5331 -0.3701
C -64.5515 -27.6815 20.1604
N -44.4524 -20.0681 34.2982
H 76.6695 22.9350 23.3387
N 80.9570 26.3448 13.8790
H 78.8386 26.2200 4.5266
F 57.1743 30.6392 -27.2350
N 48.3800 27.9047 -41.8293
O 16.8645 13.7900 -51.9336
N -32.6865 -1.7886 -29.8879
N -82.4414 -24.4464 -6.9271
C -102.8157 -45.9458 38.2226
N -102.5165 -58.6206 62.3202
19

C -93.5321 20.9459 77.9164
F -58.3963 19.8024 48.7837
H -39.5619 23.4684 31.6702
H -8.9686 23.1343 -9.1735
H 34.6654 11.3561 -42.3537
C 57.7029 -10.0656 -48.1229
F 67.3927 -28.3906 -47.3893
C 51.2188 -48.7419 -25.9355
O 11.5437 -42.7190 6.2935
N -97.9942 25.8436 84.2173
N -103.0570 27.4569 80.0484
H -91.7800 33.9116 73.2402
F -40.1924 39.3390 17.3853
N -15.2669 45.9717 -13.5426
N 23.7194 43.1061 -55.0270
O 74.6447 17.5494 -70.2648
C 81.2981 -26.3584 -75.9448
C 89.0790 -79.4609 -34.3266
H 57.4847 -96.1490 2.5257
19

F 144.2473 108.4300 56.5676
N 90.8750 68.7365 35.6165
H 66.6339 47.4249 33.7437
C 22.3598 13.1109 15.9602
H -35.6096 -32.7987 -4.3828
N -84.3392 -66.5638 -30.5578
F -108.4185 -78.2048 -49.8099
C -98.8942 -63.7051 -48.8418
N -50.6874 -18.6547 -32.6977
H 157.2886 120.1000 57.8431
H 164.5324 120.7781 65.2892
N 162.9436 112.5938 68.0701
H 92.9127 59.3290 61.5297
H 47.3629 14.1502 40.6140
F -23.4657 -43.3974 15.0006
N -100.8180 -87.3599 -27.7784
C -158.9993 -107.4178 -69.2267
C -164.8241 -104.4297 -93.0490
H -123.1003 -62.1216 -93.8905
21

H -236.4921 -3.7857 -96.6719
F -102.7790 -11.2933 -61.7772
H -45.0118 40.7836 -97.1134
C 91.0994 103.6021 -114.8573
O 108.7002 101.3727 -77.0080
N 93.3960 95.9103 11.5119
C 47.3494 30.4035 103.9334
F -20.4145 -119.1720 170.9023
H -64.2233 -304.5371 186.4040
F -256.6210 2.3139 -91.6643
F -107.0649 79.6276 -102.6112
N 7.7455 163.4251 -79.0220
H 230.3173 196.8970 -84.4157
O 178.6416 94.2125 -165.3509
N 59.2147 40.2982 -229.6377
N -66.5131 -219.7344 -216.2030
F -213.7067 -278.7232 -174.8112
C -206.9828 -89.2875 75.6341
O -134.1766 15.9978 236.0238
C 368.9780 522.2822 482.7946
H 268.5436 -460.5932 323.9399
19

O -59.8221 181.1852 -266.8506
H -29.5812 116.0538 -165.1058
F -33.3949 84.0594 -71.2392
N -10.7265 46.2864 14.1336
H 0.2466 -55.6845 123.5708
N 29.3028 -112.1647 173.8548
F 58.0108 -127.8683 152.0650
C 46.0924 -124.2612 87.6285
H 38.8196 -48.6940 -14.8428
N -58.9441 204.0193 -299.5011
F -70.8293 195.1458 -273.1063
C -81.5643 194.5480 -233.9624
C -47.4253 98.7959 -52.5892
O -31.9145 34.8906 77.3931
C -22.5806 -47.1283 179.0039
N 3.2557 -123.8936 251.4137
O 46.9347 -184.5868 206.8754
N 93.6707 -205.3134 141.3318
H 130.4493 -125.3897 -30.0732
16

O 13.1840 -15.9467 -10.8092
C 7.1178 -9.2641 -6.5118
C 3.7968 -4.6576 -2.5519
C -0.2603 1.0753 2.2591
C -7.3396 9.0628 3.9461
N -10.5694 10.7982 4.2856
O -11.6566 10.0787 5.9387
C -7.1623 7.1733 1.8675
C -0.1019 4.1487 -4.4662
H 14.2397 -18.9433 -10.5160
H 10.1557 -16.4343 -1.4945
H 6.5861 -17.6080 -2.1780
H 1.8826 0.9148 0.8454
H -2.7914 7.3173 6.4845
H -5.8640 16.3437 8.7375
H -11.2171 15.9410 4.1632
17

F 105.4305 49.0577 -68.9554
H 71.8827 23.9580 -37.9021
C 38.1873 5.4599 -8.1078
F -2.7312 -11.4117 22.9544
F -46.1970 -23.2894 39.5387
N -87.9486 -12.6845 54.0985
F -76.9394 -2.4894 33.0056
F -51.0099 -23.8682 17.1303
H -12.8749 -18.6074 -1.1720
F 118.2038 57.8580 -68.7036
F 106.6976 35.6857 -76.2976
N 94.9510 13.5644 -53.1879
H 50.7548 -1.5814 -5.3007
C -15.2186 -13.5711 28.8884
C -79.1187 -28.1847 53.5158
F -102.8947 -31.8209 42.3083
O -111.1747 -18.0751 28.1869
16

N 8.6293 -30.3811 -10.1954
C 3.8109 -15.5409 -7.4103
C -3.2244 -8.0874 -1.8315
N -2.0538 3.9952 10.3733
C -3.0324 14.7393 8.6839
O -2.7494 18.2693 3.8509
O -6.5793 22.9342 0.2453
C -6.2531 14.0111 -1.1299
C -4.0594 5.3140 -3.2227
N 8.1028 -35.9968 -7.9106
H 5.6473 -27.7029 -2.7505
H 7.2382 -27.3273 -2.1928
H 1.8968 6.8918 0.7550
H -0.5851 18.1525 4.9757
N -5.5423 22.2696 1.7443
N -1.2459 18.4594 6.0153
21

F -179.6857 -167.5040 -197.4419
F -135.5569 -106.2097 -117.1208
F -53.2460 -41.2162 -101.7196
O 8.6914 41.6157 -3.6786
C 72.0732 103.4372 47.8003
O 97.8050 156.8705 66.9181
C 85.3420 108.4441 70.0060
F 66.8981 13.4310 117.3441
H 14.1315 -101.9537 132.1659
O -206.9642 -151.6322 -209.9538
F -165.0325 -122.7045 -215.7002
C -141.5556 -103.8799 -212.7021
H 58.9644 13.7401 -69.8223
O 100.9437 107.7177 77.7342
O 86.4792 185.7288 216.7263
O 6.1145 101.4215 293.6725
N -70.4205 54.3415 170.8302
H -51.4854 16.5473 -68.6571
F 7.2893 -53.6472 -233.7507
O 205.5634 74.8627 -252.1937
H 193.6511 -129.4106 489.5431
19

O -116.0780 -179.7475 -32.8298
C -75.3600 -109.1516 -28.1458
C -70.4795 -83.3917 -38.4800
N -34.4256 -32.9378 -36.9875
C 12.7278 36.4769 -14.7353
C 59.2291 105.0092 12.1648
C 98.3019 126.3798 45.5073
F 96.0230 113.1429 53.0497
C 84.3451 54.8929 61.2707
O -118.3163 -194.7036 -30.7787
H -134.6536 -187.1555 -51.0803
H -141.4394 -176.7071 -59.6703
F -100.6014 -98.0861 -73.8006
O -85.2759 -43.6787 -68.7788
N -19.6362 29.3885 -49.7858
N 70.9134 130.5135 8.9258
N 141.3216 178.3497 69.8887
H 174.7970 190.7793 112.3741
H 158.6072 140.6270 121.8918
20

O -36.0626 -90.9234 -313.1872
N -24.2475 -52.5752 -193.4935
F -20.7720 -33.8808 -115.9444
N 7.5419 -7.7156 -33.0330
H 11.9791 23.3105 90.0456
N 21.3652 44.8730 174.7910
F 27.0447 60.5464 214.4586
N 14.5024 53.8363 179.0948
H 13.2690 22.6676 49.5082
O -51.2122 -92.7020 -324.0298
N -50.5983 -89.7826 -311.6952
C -51.8037 -74.0298 -255.4717
F -20.9914 -28.3267 -110.3791
O 0.1902 -23.1532 -32.2321
O 22.9027 -2.8368 19.9543
O 46.8251 27.7888 84.0426
O 58.5304 61.6494 144.2308
O 46.2235 84.3833 233.9370
H 33.6832 83.9158 228.9461
H -48.3699 32.9547 270.4573
15

F -58.5965 -7.8763 -15.0174
C -32.2657 4.4659 -12.3726
C -9.3921 12.5779 -7.0645
O 12.6351 15.0435 3.6292
C 30.0479 8.2404 11.3300
C 28.9915 -9.1104 20.0313
O 17.9580 -9.0606 9.0960
C 20.9788 0.7371 -2.1419
C 15.0820 -6.9554 -16.1281
O -64.5691 -15.3036 -19.2247
F -35.6658 -7.2472 -19.4602
O -28.7295 -11.2498 -8.6524
H 6.1977 25.0104 4.7496
H 46.8345 16.9193 32.9212
H 50.4933 -16.1911 18.3045
